*SPEF "IEEE 1481.1999"
*DESIGN "apb_aes"
*DATE "17:11:13 Sunday September 27, 2026"
*VENDOR "unknown"
*PROGRAM "qrouter"
*VERSION "unknown"
*DESIGN_FLOW "qflow"
*DIVIDER /
*DELIMITER :
*BUS_DELIMITER <>
*T_UNIT 1 PS
*C_UNIT 1 FF
*R_UNIT 1 OHM
*L_UNIT 1 HENRY

*NAME_MAP
*1 _536_
*2 _2236_
*3 BUFX2_insert212
*4 BUFX2_insert216
*5 BUFX2_insert221
*6 BUFX2_insert219
*7 BUFX2_insert215
*8 BUFX2_insert213
*9 BUFX2_insert214
*10 BUFX2_insert210
*11 BUFX2_insert217
*12 BUFX2_insert209
*13 BUFX2_insert208
*14 BUFX2_insert211
*15 BUFX2_insert218
*16 BUFX2_insert222
*17 BUFX2_insert207
*18 BUFX2_insert220
*19 _536__bF_buf0
*20 BUFX2_insert222
*21 _2865_
*22 _2937_
*23 _2578_
*24 _3224_
*25 _3225_
*26 _2577_
*27 _3010_
*28 _3009_
*29 _2362_
*30 _2361_
*31 _3082_
*32 _3153_
*33 _2866_
*34 _2938_
*35 _2901_
*36 _2902_
*37 _536__bF_buf1
*38 BUFX2_insert221
*39 _3135_
*40 _3063_
*41 _2559_
*42 _2560_
*43 _2271_
*44 _2848_
*45 _2488_
*46 _2487_
*47 _3350_
*48 _3351_
*49 _3064_
*50 _3134_
*51 _3161_
*52 _3179_
*53 _3180_
*54 _3162_
*55 _536__bF_buf2
*56 BUFX2_insert220
*57 _2254_
*58 _2893_
*59 _2371_
*60 _2370_
*61 _2298_
*62 _2299_
*63 _2775_
*64 _2245_
*65 _3342_
*66 _2874_
*67 _2632_
*68 _2631_
*69 _2946_
*70 _2892_
*71 _2695_
*72 _2694_
*73 _536__bF_buf3
*74 BUFX2_insert219
*75 _3269_
*76 _3377_
*77 _3091_
*78 _3090_
*79 _3378_
*80 _3270_
*81 _2991_
*82 _2992_
*83 _2919_
*84 _2920_
*85 _3234_
*86 _3233_
*87 _3207_
*88 _3206_
*89 _3278_
*90 _3279_
*91 _536__bF_buf4
*92 BUFX2_insert218
*93 _2506_
*94 _2505_
*95 _2649_
*96 _2650_
*97 _2289_
*98 _2434_
*99 _2433_
*100 _2290_
*101 _2721_
*102 _2722_
*103 _2793_
*104 _2794_
*105 _2424_
*106 _2353_
*107 _2352_
*108 _2568_
*109 _536__bF_buf5
*110 BUFX2_insert217
*111 _2335_
*112 _2614_
*113 _2622_
*114 _2623_
*115 _2343_
*116 _2731_
*117 _3252_
*118 _3251_
*119 _3314_
*120 _2613_
*121 _2334_
*122 _2388_
*123 _2514_
*124 _2515_
*125 _2389_
*126 _2443_
*127 _536__bF_buf6
*128 BUFX2_insert216
*129 _2586_
*130 _2587_
*131 _2847_
*132 _2272_
*133 _2658_
*134 _2820_
*135 _2659_
*136 _2766_
*137 _2767_
*138 _2776_
*139 _2244_
*140 _2821_
*141 _2839_
*142 _2838_
*143 _3108_
*144 _3109_
*145 _536__bF_buf7
*146 BUFX2_insert215
*147 _2667_
*148 _2523_
*149 _2524_
*150 _2380_
*151 _2379_
*152 _3117_
*153 _3116_
*154 _2668_
*155 _2911_
*156 _2803_
*157 _3198_
*158 _3323_
*159 _2677_
*160 _2676_
*161 _3046_
*162 _2308_
*163 _536__bF_buf8
*164 BUFX2_insert214
*165 _3018_
*166 _2829_
*167 _2830_
*168 _2730_
*169 _2704_
*170 _2703_
*171 _3055_
*172 _2406_
*173 _2253_
*174 _2407_
*175 _2262_
*176 _2263_
*177 _3126_
*178 _3125_
*179 _2442_
*180 _2542_
*181 _536__bF_buf9
*182 BUFX2_insert213
*183 _3037_
*184 _2910_
*185 _3324_
*186 _2983_
*187 _2947_
*188 _2875_
*189 _2982_
*190 _3341_
*191 _3306_
*192 _3305_
*193 _2461_
*194 _2605_
*195 _3036_
*196 _2802_
*197 _2749_
*198 _3197_
*199 _536__bF_buf10
*200 BUFX2_insert212
*201 _2452_
*202 _2451_
*203 _2551_
*204 _2550_
*205 _2415_
*206 _2416_
*207 _2479_
*208 _2532_
*209 _2533_
*210 _2478_
*211 _3054_
*212 _2541_
*213 _2317_
*214 _2964_
*215 _2965_
*216 _2316_
*217 _536__bF_buf11
*218 BUFX2_insert211
*219 _3100_
*220 _3369_
*221 _3368_
*222 _3360_
*223 _3215_
*224 _3359_
*225 _3144_
*226 _3143_
*227 _3073_
*228 _3288_
*229 _3287_
*230 _3072_
*231 _2712_
*232 _2713_
*233 _2784_
*234 _3216_
*235 _536__bF_buf12
*236 BUFX2_insert210
*237 _2740_
*238 _3315_
*239 _2344_
*240 _2460_
*241 _2604_
*242 _2739_
*243 _3019_
*244 _2748_
*245 _2758_
*246 _2974_
*247 _2470_
*248 _2973_
*249 _2326_
*250 _2325_
*251 _3027_
*252 _3028_
*253 _536__bF_buf13
*254 BUFX2_insert209
*255 _3081_
*256 _2497_
*257 _2496_
*258 _2569_
*259 _2928_
*260 _2640_
*261 _3000_
*262 _2929_
*263 _2280_
*264 _2281_
*265 _2856_
*266 _2857_
*267 _2785_
*268 _3001_
*269 _2425_
*270 _2641_
*271 _536__bF_buf14
*272 BUFX2_insert208
*273 _2685_
*274 _3152_
*275 _3260_
*276 _2757_
*277 _3261_
*278 _3297_
*279 _3296_
*280 _3188_
*281 _3189_
*282 _3171_
*283 _3099_
*284 _3332_
*285 _2595_
*286 _3333_
*287 _3170_
*288 _2686_
*289 _536__bF_buf15
*290 BUFX2_insert207
*291 _2469_
*292 _2596_
*293 _2883_
*294 _2812_
*295 _2811_
*296 _3243_
*297 _3386_
*298 _2884_
*299 _3387_
*300 _2955_
*301 _2956_
*302 _2307_
*303 _2398_
*304 _2397_
*305 _3242_
*306 _3045_
*307 busy_bF_buf10
*308 BUFX2_insert29
*309 _3292_
*310 _2285_
*311 _3148_
*312 _2681_
*313 _2852_
*314 _3068_
*315 _2924_
*316 _2636_
*317 _2492_
*318 _2564_
*319 _2348_
*320 _2420_
*321 _3256_
*322 _539__bF_buf2
*323 BUFX2_insert204
*324 _2673_
*325 _2664_
*326 _3087_
*327 _2376_
*328 _3374_
*329 _3113_
*330 _2799_
*331 _3320_
*332 _3033_
*333 _2907_
*334 _2745_
*335 _2322_
*336 _539__bF_buf3
*337 BUFX2_insert203
*338 _2574_
*339 _2502_
*340 _2286_
*341 _2646_
*342 _2790_
*343 _2421_
*344 _3078_
*345 _2493_
*346 _2637_
*347 _2565_
*348 _2349_
*349 _2430_
*350 _539__bF_buf4
*351 BUFX2_insert202
*352 _2439_
*353 _2250_
*354 _2538_
*355 _2601_
*356 _2727_
*357 _3194_
*358 _3015_
*359 _2736_
*360 _2826_
*361 _3311_
*362 _2340_
*363 _2961_
*364 _539__bF_buf5
*365 BUFX2_insert201
*366 _2241_
*367 _2943_
*368 _2835_
*369 _2484_
*370 _2817_
*371 _2889_
*372 _2691_
*373 _2763_
*374 _2529_
*375 _2412_
*376 _2475_
*377 _2547_
*378 _539__bF_buf6
*379 BUFX2_insert200
*380 _2898_
*381 _2619_
*382 _2610_
*383 _2331_
*384 _2385_
*385 _2511_
*386 _3006_
*387 _2862_
*388 _3221_
*389 _2934_
*390 _2358_
*391 _2718_
*392 _539__bF_buf7
*393 BUFX2_insert199
*394 _2700_
*395 _3302_
*396 _2871_
*397 _2259_
*398 _2448_
*399 _2313_
*400 _3122_
*401 _3051_
*402 _2583_
*403 _2367_
*404 _2403_
*405 _2772_
*406 _539__bF_buf8
*407 BUFX2_insert198
*408 _3347_
*409 _2556_
*410 _3176_
*411 _3399_
*412 _3389_
*413 _3275_
*414 _3158_
*415 _3131_
*416 _2628_
*417 _2655_
*418 _3105_
*419 _2844_
*420 _539__bF_buf9
*421 BUFX2_insert197
*422 _3248_
*423 _2457_
*424 _3024_
*425 _2970_
*426 _3042_
*427 _2880_
*428 _3383_
*429 _2952_
*430 _2304_
*431 _2466_
*432 _2808_
*433 _3096_
*434 _539__bF_buf10
*435 BUFX2_insert196
*436 _3257_
*437 _3149_
*438 _2682_
*439 _2853_
*440 _2925_
*441 _3069_
*442 _2997_
*443 _2709_
*444 _2277_
*445 _3356_
*446 _3140_
*447 _2781_
*448 _1740__bF_buf1
*449 BUFX2_insert141
*450 _3292_
*451 _2285_
*452 _2681_
*453 _3077_
*454 _2789_
*455 _2420_
*456 _2564_
*457 _2348_
*458 _2492_
*459 _2636_
*460 _3148_
*461 _3256_
*462 _1740__bF_buf2
*463 BUFX2_insert140
*464 _3364_
*465 _2780_
*466 _2924_
*467 _3068_
*468 _2852_
*469 _2276_
*470 _2708_
*471 _2996_
*472 _3283_
*473 _3211_
*474 _3139_
*475 _3355_
*476 _1740__bF_buf3
*477 BUFX2_insert139
*478 _2735_
*479 _3301_
*480 _3014_
*481 _2798_
*482 _3247_
*483 _2825_
*484 _3319_
*485 _2249_
*486 _2240_
*487 _2447_
*488 _2699_
*489 _3104_
*490 _1740__bF_buf4
*491 BUFX2_insert138
*492 _2690_
*493 _2258_
*494 _2339_
*495 _2816_
*496 _2411_
*497 _3050_
*498 _2528_
*499 _3121_
*500 _2438_
*501 _2726_
*502 _2906_
*503 _2870_
*504 _1740__bF_buf5
*505 BUFX2_insert137
*506 _2771_
*507 _2366_
*508 _2474_
*509 _2600_
*510 _2546_
*511 _2762_
*512 _2888_
*513 _2236_
*514 _3403_
*515 _2834_
*516 _2483_
*517 _2312_
*518 _1740__bF_buf6
*519 BUFX2_insert136
*520 _2510_
*521 _2609_
*522 _3005_
*523 _3220_
*524 _2933_
*525 _2357_
*526 _2717_
*527 _2573_
*528 _2501_
*529 _2429_
*530 _2645_
*531 _2861_
*532 _1740__bF_buf7
*533 BUFX2_insert135
*534 _2663_
*535 _3112_
*536 _2375_
*537 _3373_
*538 _2303_
*539 _2951_
*540 _2321_
*541 _2744_
*542 _3032_
*543 _2672_
*544 _3382_
*545 _2969_
*546 _1740__bF_buf8
*547 BUFX2_insert134
*548 _2897_
*549 _2618_
*550 _3310_
*551 _2384_
*552 _2537_
*553 _3023_
*554 _2456_
*555 _3193_
*556 _2960_
*557 _2402_
*558 _2582_
*559 _2330_
*560 _1740__bF_buf9
*561 BUFX2_insert133
*562 _3095_
*563 _3041_
*564 _2879_
*565 _3184_
*566 _2807_
*567 _2465_
*568 _3328_
*569 _2393_
*570 _2753_
*571 _2591_
*572 _3166_
*573 _3238_
*574 _1740__bF_buf10
*575 BUFX2_insert132
*576 _3086_
*577 _2978_
*578 _3265_
*579 _3337_
*580 _2294_
*581 _3059_
*582 _2915_
*583 _2627_
*584 _2843_
*585 _2654_
*586 _2942_
*587 _2519_
*588 busy_bF_buf0
*589 BUFX2_insert39
*590 _2519_
*591 _3104_
*592 _2339_
*593 _2816_
*594 _2411_
*595 _3050_
*596 _2771_
*597 _2942_
*598 _2654_
*599 _2483_
*600 _2627_
*601 _2843_
*602 busy_bF_buf1
*603 BUFX2_insert38
*604 _3220_
*605 _2933_
*606 _2357_
*607 _3005_
*608 _2717_
*609 _2573_
*610 _2501_
*611 _2429_
*612 _2645_
*613 _2861_
*614 _2789_
*615 _3077_
*616 busy_bF_buf2
*617 BUFX2_insert37
*618 _2447_
*619 _2240_
*620 _2870_
*621 _2690_
*622 _2258_
*623 _2906_
*624 _2735_
*625 _3014_
*626 _3301_
*627 _3193_
*628 _3121_
*629 _2699_
*630 busy_bF_buf3
*631 BUFX2_insert36
*632 _2726_
*633 _2438_
*634 _2897_
*635 _2618_
*636 _3310_
*637 _2609_
*638 _2510_
*639 _2384_
*640 _2330_
*641 _2582_
*642 _2960_
*643 _2402_
*644 busy_bF_buf4
*645 BUFX2_insert35
*646 _2393_
*647 _2753_
*648 _3166_
*649 _3364_
*650 _3283_
*651 _3211_
*652 _3139_
*653 _3355_
*654 _2996_
*655 _2708_
*656 _2276_
*657 _2780_
*658 busy_bF_buf5
*659 BUFX2_insert34
*660 _2591_
*661 _3238_
*662 _2465_
*663 _2807_
*664 _2879_
*665 _3184_
*666 _2951_
*667 _3041_
*668 _2969_
*669 _3382_
*670 _3095_
*671 _3328_
*672 busy_bF_buf6
*673 BUFX2_insert33
*674 _3157_
*675 _3229_
*676 _1857_
*677 _1858_
*678 _3059_
*679 _2915_
*680 _2294_
*681 _3130_
*682 _3346_
*683 _2267_
*684 _2555_
*685 _3175_
*686 busy_bF_buf7
*687 BUFX2_insert32
*688 _2663_
*689 _3112_
*690 _3086_
*691 _2978_
*692 _3265_
*693 _3337_
*694 _2987_
*695 _3202_
*696 _3274_
*697 _2375_
*698 _3373_
*699 _2303_
*700 busy_bF_buf8
*701 BUFX2_insert31
*702 _2537_
*703 _2456_
*704 _3023_
*705 _2825_
*706 _2798_
*707 _3247_
*708 _2249_
*709 _3319_
*710 _3032_
*711 _2672_
*712 _2321_
*713 _2744_
*714 busy_bF_buf9
*715 BUFX2_insert30
*716 _2528_
*717 _2366_
*718 _2312_
*719 _2474_
*720 _2600_
*721 _2546_
*722 _2762_
*723 _1881_
*724 _3403_
*725 _2834_
*726 _2235_
*727 _2888_
*728 _539_
*729 _2239_
*730 BUFX2_insert201
*731 BUFX2_insert199
*732 BUFX2_insert204
*733 BUFX2_insert197
*734 BUFX2_insert202
*735 BUFX2_insert200
*736 BUFX2_insert196
*737 BUFX2_insert203
*738 BUFX2_insert205
*739 BUFX2_insert198
*740 BUFX2_insert206
*741 _539__bF_buf0
*742 BUFX2_insert206
*743 _3338_
*744 _3060_
*745 _2268_
*746 _3230_
*747 _2295_
*748 _2916_
*749 _2988_
*750 _3203_
*751 _3266_
*752 _2520_
*753 _2979_
*754 _539__bF_buf1
*755 BUFX2_insert205
*756 _2754_
*757 _2394_
*758 _2592_
*759 _3185_
*760 _3293_
*761 _3212_
*762 _3365_
*763 _3167_
*764 _3284_
*765 _3329_
*766 _3239_
*767 _1740_
*768 _1851_
*769 BUFX2_insert137
*770 BUFX2_insert138
*771 BUFX2_insert132
*772 BUFX2_insert135
*773 BUFX2_insert133
*774 BUFX2_insert140
*775 BUFX2_insert141
*776 BUFX2_insert139
*777 BUFX2_insert134
*778 BUFX2_insert136
*779 BUFX2_insert142
*780 _1740__bF_buf0
*781 BUFX2_insert142
*782 _3130_
*783 _3346_
*784 _2267_
*785 _2555_
*786 _3175_
*787 _3229_
*788 _1858_
*789 _2987_
*790 _3202_
*791 _3157_
*792 _3274_
*793 busy
*794 _3957_
*795 BUFX2_insert33
*796 BUFX2_insert37
*797 BUFX2_insert36
*798 BUFX2_insert31
*799 BUFX2_insert32
*800 BUFX2_insert35
*801 BUFX2_insert34
*802 BUFX2_insert29
*803 BUFX2_insert38
*804 BUFX2_insert30
*805 BUFX2_insert39
*806 pclk_hier0_bF_buf3
*807 CLKBUF1_insert254
*808 CLKBUF1_insert185
*809 CLKBUF1_insert169
*810 CLKBUF1_insert194
*811 CLKBUF1_insert165
*812 CLKBUF1_insert188
*813 CLKBUF1_insert143
*814 CLKBUF1_insert189
*815 CLKBUF1_insert182
*816 pclk_hier0_bF_buf4
*817 CLKBUF1_insert253
*818 CLKBUF1_insert172
*819 CLKBUF1_insert192
*820 CLKBUF1_insert178
*821 CLKBUF1_insert187
*822 CLKBUF1_insert170
*823 CLKBUF1_insert190
*824 CLKBUF1_insert157
*825 CLKBUF1_insert177
*826 pclk_hier0_bF_buf5
*827 CLKBUF1_insert252
*828 CLKBUF1_insert151
*829 CLKBUF1_insert163
*830 CLKBUF1_insert146
*831 CLKBUF1_insert173
*832 CLKBUF1_insert166
*833 CLKBUF1_insert181
*834 CLKBUF1_insert176
*835 CLKBUF1_insert191
*836 pclk_hier0_bF_buf6
*837 CLKBUF1_insert251
*838 CLKBUF1_insert168
*839 CLKBUF1_insert145
*840 CLKBUF1_insert175
*841 CLKBUF1_insert183
*842 CLKBUF1_insert171
*843 CLKBUF1_insert147
*844 CLKBUF1_insert158
*845 CLKBUF1_insert174
*846 presetn_hier0_bF_buf3
*847 BUFX2_insert247
*848 BUFX2_insert125
*849 BUFX2_insert74
*850 BUFX2_insert75
*851 BUFX2_insert88
*852 BUFX2_insert87
*853 BUFX2_insert118
*854 BUFX2_insert110
*855 BUFX2_insert126
*856 presetn_hier0_bF_buf4
*857 BUFX2_insert246
*858 BUFX2_insert84
*859 BUFX2_insert112
*860 BUFX2_insert98
*861 BUFX2_insert96
*862 BUFX2_insert120
*863 BUFX2_insert108
*864 BUFX2_insert99
*865 BUFX2_insert117
*866 presetn_hier0_bF_buf5
*867 BUFX2_insert245
*868 BUFX2_insert79
*869 BUFX2_insert106
*870 BUFX2_insert119
*871 BUFX2_insert81
*872 BUFX2_insert78
*873 BUFX2_insert95
*874 BUFX2_insert109
*875 BUFX2_insert90
*876 presetn_hier0_bF_buf6
*877 BUFX2_insert244
*878 BUFX2_insert122
*879 BUFX2_insert104
*880 BUFX2_insert83
*881 BUFX2_insert92
*882 BUFX2_insert116
*883 BUFX2_insert101
*884 BUFX2_insert107
*885 BUFX2_insert97
*886 _1639_
*887 _3536_
*888 BUFX2_insert236
*889 BUFX2_insert238
*890 BUFX2_insert241
*891 BUFX2_insert237
*892 BUFX2_insert242
*893 BUFX2_insert239
*894 BUFX2_insert240
*895 BUFX2_insert243
*896 _1639__bF_buf0
*897 BUFX2_insert243
*898 _3540_
*899 _3539_
*900 _3549_
*901 _3589_
*902 _3590_
*903 _3541_
*904 _3542_
*905 _3550_
*906 _1639__bF_buf1
*907 BUFX2_insert242
*908 _3564_
*909 _3563_
*910 _3596_
*911 _3561_
*912 _3562_
*913 _3595_
*914 _3593_
*915 _3594_
*916 _1639__bF_buf2
*917 BUFX2_insert241
*918 _3552_
*919 _3551_
*920 _3599_
*921 _3600_
*922 _3568_
*923 _3567_
*924 _3598_
*925 _3597_
*926 _1639__bF_buf3
*927 BUFX2_insert240
*928 _3570_
*929 _3555_
*930 _3556_
*931 _3547_
*932 _3580_
*933 _3579_
*934 _3548_
*935 _3569_
*936 _1639__bF_buf4
*937 BUFX2_insert239
*938 _3584_
*939 _3583_
*940 _3582_
*941 _3581_
*942 _3546_
*943 _3545_
*944 _3578_
*945 _3577_
*946 _1639__bF_buf5
*947 BUFX2_insert238
*948 _3559_
*949 _3560_
*950 _3574_
*951 _3573_
*952 _3575_
*953 _3576_
*954 _3554_
*955 _3553_
*956 _1639__bF_buf6
*957 BUFX2_insert237
*958 _3571_
*959 _3558_
*960 _3557_
*961 _3585_
*962 _3586_
*963 _3572_
*964 _3587_
*965 _3588_
*966 _1639__bF_buf7
*967 BUFX2_insert236
*968 _3592_
*969 _3591_
*970 _3565_
*971 _3566_
*972 _3544_
*973 _3543_
*974 _3538_
*975 _3537_
*976 _1707_
*977 _3668_
*978 BUFX2_insert230
*979 BUFX2_insert229
*980 BUFX2_insert231
*981 BUFX2_insert232
*982 BUFX2_insert234
*983 BUFX2_insert235
*984 BUFX2_insert228
*985 BUFX2_insert233
*986 _1707__bF_buf0
*987 BUFX2_insert235
*988 _3709_
*989 _3728_
*990 _3726_
*991 _3710_
*992 _3678_
*993 _3677_
*994 _3725_
*995 _3727_
*996 _1707__bF_buf1
*997 BUFX2_insert234
*998 _3688_
*999 _3687_
*1000 _3711_
*1001 _3712_
*1002 _3719_
*1003 _3720_
*1004 _3693_
*1005 _3694_
*1006 _1707__bF_buf2
*1007 BUFX2_insert233
*1008 _3696_
*1009 _3695_
*1010 _3716_
*1011 _3715_
*1012 _3702_
*1013 _3701_
*1014 _3673_
*1015 _3674_
*1016 _1707__bF_buf3
*1017 BUFX2_insert232
*1018 _3731_
*1019 _3732_
*1020 _3699_
*1021 _3700_
*1022 _3718_
*1023 _3717_
*1024 _3672_
*1025 _3671_
*1026 _1707__bF_buf4
*1027 BUFX2_insert231
*1028 _3698_
*1029 _3697_
*1030 _3682_
*1031 _3681_
*1032 _3707_
*1033 _3708_
*1034 _3706_
*1035 _3705_
*1036 _1707__bF_buf5
*1037 BUFX2_insert230
*1038 _3721_
*1039 _3730_
*1040 _3729_
*1041 _3722_
*1042 _3714_
*1043 _3713_
*1044 _3670_
*1045 _3669_
*1046 _1707__bF_buf6
*1047 BUFX2_insert229
*1048 _3692_
*1049 _3691_
*1050 _3676_
*1051 _3686_
*1052 _3685_
*1053 _3675_
*1054 _3723_
*1055 _3724_
*1056 _1707__bF_buf7
*1057 BUFX2_insert228
*1058 _3704_
*1059 _3703_
*1060 _3679_
*1061 _3680_
*1062 _3684_
*1063 _3683_
*1064 _3690_
*1065 _3689_
*1066 pclk_bF_buf33
*1067 CLKBUF1_insert162
*1068 _3820_
*1069 _3799_
*1070 _4034_
*1071 _4002_
*1072 _4054_
*1073 _3759_
*1074 _3756_
*1075 _3816_
*1076 pclk_bF_buf34
*1077 CLKBUF1_insert161
*1078 _3821_
*1079 _3973_
*1080 _4052_
*1081 _3854_
*1082 _3789_
*1083 _3980_
*1084 _3877_
*1085 _3884_
*1086 pclk_bF_buf35
*1087 CLKBUF1_insert160
*1088 _3875_
*1089 _3893_
*1090 _3824_
*1091 _3733_
*1092 _4092_
*1093 _4060_
*1094 _3896_
*1095 _3856_
*1096 pclk_bF_buf36
*1097 CLKBUF1_insert159
*1098 _3887_
*1099 _3888_
*1100 _3797_
*1101 _3832_
*1102 _3867_
*1103 _4023_
*1104 _3835_
*1105 _4010_
*1106 pclk_bF_buf37
*1107 CLKBUF1_insert158
*1108 _4004_
*1109 _3862_
*1110 _3808_
*1111 _4018_
*1112 _3915_
*1113 _3947_
*1114 _3885_
*1115 _3869_
*1116 pclk_bF_buf38
*1117 CLKBUF1_insert157
*1118 _3939_
*1119 _3982_
*1120 _3955_
*1121 _3860_
*1122 _3926_
*1123 _3836_
*1124 _4090_
*1125 _4116_
*1126 pclk_bF_buf39
*1127 CLKBUF1_insert156
*1128 _3826_
*1129 _4001_
*1130 _3770_
*1131 _4033_
*1132 _4037_
*1133 _3874_
*1134 _3738_
*1135 _3762_
*1136 pclk_bF_buf40
*1137 CLKBUF1_insert155
*1138 _3783_
*1139 _4014_
*1140 _3962_
*1141 _3879_
*1142 _3739_
*1143 _4036_
*1144 _3863_
*1145 _3848_
*1146 pclk_bF_buf41
*1147 CLKBUF1_insert154
*1148 _3999_
*1149 _4068_
*1150 _4074_
*1151 _3957_
*1152 _3958_
*1153 _3960_
*1154 _3961_
*1155 _3959_
*1156 pclk_bF_buf42
*1157 CLKBUF1_insert153
*1158 _4122_
*1159 _3943_
*1160 _4118_
*1161 _3803_
*1162 _3981_
*1163 _4039_
*1164 _3911_
*1165 _3912_
*1166 pclk_bF_buf43
*1167 CLKBUF1_insert152
*1168 _3813_
*1169 _4017_
*1170 _4044_
*1171 _3787_
*1172 _3837_
*1173 _3859_
*1174 _3851_
*1175 _3845_
*1176 pclk_bF_buf44
*1177 CLKBUF1_insert151
*1178 _3938_
*1179 _3866_
*1180 _3984_
*1181 _3802_
*1182 _4025_
*1183 _3858_
*1184 _3976_
*1185 _3890_
*1186 pclk_bF_buf45
*1187 CLKBUF1_insert150
*1188 _3791_
*1189 _3995_
*1190 _3963_
*1191 _3977_
*1192 _3747_
*1193 _3895_
*1194 _4028_
*1195 _3925_
*1196 pclk_bF_buf46
*1197 CLKBUF1_insert149
*1198 _3906_
*1199 _4077_
*1200 _3916_
*1201 _3886_
*1202 _3948_
*1203 _3795_
*1204 _3964_
*1205 _4050_
*1206 pclk_bF_buf47
*1207 CLKBUF1_insert148
*1208 _3990_
*1209 _3864_
*1210 _4047_
*1211 _4055_
*1212 _4042_
*1213 _3899_
*1214 _4015_
*1215 _3776_
*1216 pclk_bF_buf48
*1217 CLKBUF1_insert147
*1218 _3847_
*1219 _3815_
*1220 _3831_
*1221 _3989_
*1222 _3927_
*1223 _4029_
*1224 _3985_
*1225 _3741_
*1226 pclk_bF_buf49
*1227 CLKBUF1_insert146
*1228 _3889_
*1229 _3946_
*1230 _3782_
*1231 _3814_
*1232 _3922_
*1233 _3930_
*1234 _3942_
*1235 _3913_
*1236 pclk_bF_buf50
*1237 CLKBUF1_insert145
*1238 _3743_
*1239 _3763_
*1240 _4105_
*1241 _3807_
*1242 _4108_
*1243 _4115_
*1244 _3749_
*1245 _4049_
*1246 pclk_bF_buf51
*1247 CLKBUF1_insert144
*1248 _3779_
*1249 _3760_
*1250 _3736_
*1251 _4031_
*1252 _4086_
*1253 _3974_
*1254 _3952_
*1255 _3966_
*1256 pclk_bF_buf52
*1257 CLKBUF1_insert143
*1258 _3924_
*1259 _3929_
*1260 _3937_
*1261 _3954_
*1262 _3953_
*1263 _4024_
*1264 _3793_
*1265 _4101_
*1266 presetn_bF_buf33
*1267 BUFX2_insert93
*1268 _4100_
*1269 _4095_
*1270 _3800_
*1271 _4007_
*1272 _3768_
*1273 _4087_
*1274 _3928_
*1275 _3920_
*1276 presetn_bF_buf34
*1277 BUFX2_insert92
*1278 _3763_
*1279 _4105_
*1280 _3807_
*1281 _4108_
*1282 _4115_
*1283 _4083_
*1284 _3749_
*1285 _4049_
*1286 presetn_bF_buf35
*1287 BUFX2_insert91
*1288 _4076_
*1289 _3836_
*1290 _3926_
*1291 _3918_
*1292 _3860_
*1293 _3923_
*1294 _4090_
*1295 _4020_
*1296 presetn_bF_buf36
*1297 BUFX2_insert90
*1298 _3951_
*1299 _3788_
*1300 _3843_
*1301 _3830_
*1302 _3969_
*1303 _3829_
*1304 _3901_
*1305 _3792_
*1306 presetn_bF_buf37
*1307 BUFX2_insert89
*1308 _4112_
*1309 _4089_
*1310 _4121_
*1311 _4064_
*1312 _4096_
*1313 _4120_
*1314 _4072_
*1315 _4067_
*1316 presetn_bF_buf38
*1317 BUFX2_insert88
*1318 _3930_
*1319 _3922_
*1320 _3889_
*1321 _3913_
*1322 _3857_
*1323 _3946_
*1324 _4040_
*1325 _3842_
*1326 presetn_bF_buf39
*1327 BUFX2_insert87
*1328 _3866_
*1329 _3810_
*1330 _3817_
*1331 _3849_
*1332 _3833_
*1333 _3825_
*1334 _3801_
*1335 _3865_
*1336 presetn_bF_buf40
*1337 BUFX2_insert86
*1338 _4084_
*1339 _4053_
*1340 _3806_
*1341 _4006_
*1342 _3892_
*1343 _4045_
*1344 _3900_
*1345 _3956_
*1346 presetn_bF_buf41
*1347 BUFX2_insert85
*1348 _3970_
*1349 _4091_
*1350 _3822_
*1351 _3781_
*1352 _3940_
*1353 _4123_
*1354 _4059_
*1355 _4107_
*1356 presetn_bF_buf42
*1357 BUFX2_insert84
*1358 _4062_
*1359 _3755_
*1360 _3766_
*1361 _3909_
*1362 _3798_
*1363 _4070_
*1364 _4094_
*1365 _3819_
*1366 presetn_bF_buf43
*1367 BUFX2_insert83
*1368 _3743_
*1369 _4037_
*1370 _4033_
*1371 _3744_
*1372 _3827_
*1373 _3787_
*1374 _3979_
*1375 _4044_
*1376 presetn_bF_buf44
*1377 BUFX2_insert82
*1378 _4063_
*1379 _4119_
*1380 _3779_
*1381 _3760_
*1382 _3736_
*1383 _3966_
*1384 _3974_
*1385 _4086_
*1386 presetn_bF_buf45
*1387 BUFX2_insert81
*1388 _3888_
*1389 _3797_
*1390 _3832_
*1391 _3867_
*1392 _3893_
*1393 _4028_
*1394 _3925_
*1395 _3824_
*1396 presetn_bF_buf46
*1397 BUFX2_insert80
*1398 _3957_
*1399 _4074_
*1400 _4068_
*1401 _3999_
*1402 _3960_
*1403 _3958_
*1404 _3961_
*1405 _3959_
*1406 presetn_bF_buf47
*1407 BUFX2_insert79
*1408 _4042_
*1409 _3776_
*1410 _4010_
*1411 _4015_
*1412 _3899_
*1413 _3907_
*1414 _3853_
*1415 _3872_
*1416 presetn_bF_buf48
*1417 BUFX2_insert78
*1418 _3875_
*1419 _3977_
*1420 _3747_
*1421 _3895_
*1422 _3963_
*1423 _3995_
*1424 _3791_
*1425 _4014_
*1426 presetn_bF_buf49
*1427 BUFX2_insert77
*1428 _3936_
*1429 _3955_
*1430 _3982_
*1431 _3939_
*1432 _4122_
*1433 _3780_
*1434 _4011_
*1435 _3748_
*1436 presetn_bF_buf50
*1437 BUFX2_insert76
*1438 _3812_
*1439 _4078_
*1440 _3751_
*1441 _3978_
*1442 _3908_
*1443 _3740_
*1444 _3764_
*1445 _4093_
*1446 presetn_bF_buf51
*1447 BUFX2_insert75
*1448 _3898_
*1449 _3906_
*1450 _4102_
*1451 _4109_
*1452 _3757_
*1453 _3968_
*1454 _4073_
*1455 _3914_
*1456 presetn_bF_buf52
*1457 BUFX2_insert74
*1458 _3916_
*1459 _3821_
*1460 _4038_
*1461 _3973_
*1462 _4052_
*1463 _3854_
*1464 _3789_
*1465 _3910_
*1466 _402_
*1467 _2006_
*1468 BUFX2_insert62
*1469 BUFX2_insert56
*1470 BUFX2_insert57
*1471 BUFX2_insert58
*1472 BUFX2_insert59
*1473 BUFX2_insert63
*1474 BUFX2_insert60
*1475 BUFX2_insert61
*1476 _402__bF_buf0
*1477 BUFX2_insert63
*1478 _2022_
*1479 _2071_
*1480 _2070_
*1481 _2046_
*1482 _2047_
*1483 _2023_
*1484 _2094_
*1485 _2095_
*1486 _402__bF_buf1
*1487 BUFX2_insert62
*1488 _2050_
*1489 _2049_
*1490 _2008_
*1491 _2007_
*1492 _2017_
*1493 _2089_
*1494 _2088_
*1495 _2016_
*1496 _402__bF_buf2
*1497 BUFX2_insert61
*1498 _2058_
*1499 _2059_
*1500 _2035_
*1501 _2034_
*1502 _2080_
*1503 _2079_
*1504 _2083_
*1505 _2082_
*1506 _402__bF_buf3
*1507 BUFX2_insert60
*1508 _2052_
*1509 _2053_
*1510 _2062_
*1511 _2100_
*1512 _2061_
*1513 _2101_
*1514 _2029_
*1515 _2028_
*1516 _402__bF_buf4
*1517 BUFX2_insert59
*1518 _2091_
*1519 _2092_
*1520 _2020_
*1521 _2019_
*1522 _2067_
*1523 _2068_
*1524 _2043_
*1525 _2044_
*1526 _402__bF_buf5
*1527 BUFX2_insert58
*1528 _2041_
*1529 _2040_
*1530 _2055_
*1531 _2038_
*1532 _2037_
*1533 _2098_
*1534 _2097_
*1535 _2056_
*1536 _402__bF_buf6
*1537 BUFX2_insert57
*1538 _2032_
*1539 _2031_
*1540 _2073_
*1541 _2074_
*1542 _2011_
*1543 _2010_
*1544 _2013_
*1545 _2014_
*1546 _402__bF_buf7
*1547 BUFX2_insert56
*1548 _2026_
*1549 _2025_
*1550 _2085_
*1551 _2086_
*1552 _2077_
*1553 _2076_
*1554 _2065_
*1555 _2064_
*1556 _502_
*1557 _2170_
*1558 BUFX2_insert53
*1559 BUFX2_insert51
*1560 BUFX2_insert49
*1561 BUFX2_insert52
*1562 BUFX2_insert54
*1563 BUFX2_insert50
*1564 BUFX2_insert48
*1565 BUFX2_insert55
*1566 _502__bF_buf0
*1567 BUFX2_insert55
*1568 _2183_
*1569 _2184_
*1570 _2177_
*1571 _2178_
*1572 _2233_
*1573 _2234_
*1574 _2202_
*1575 _2201_
*1576 _502__bF_buf1
*1577 BUFX2_insert54
*1578 _2203_
*1579 _2204_
*1580 _2182_
*1581 _2181_
*1582 _2198_
*1583 _2205_
*1584 _2206_
*1585 _2197_
*1586 _502__bF_buf2
*1587 BUFX2_insert53
*1588 _2210_
*1589 _2209_
*1590 _2187_
*1591 _2188_
*1592 _2171_
*1593 _2172_
*1594 _2226_
*1595 _2225_
*1596 _502__bF_buf3
*1597 BUFX2_insert52
*1598 _2192_
*1599 _2191_
*1600 _2231_
*1601 _2232_
*1602 _2229_
*1603 _2230_
*1604 _2214_
*1605 _2213_
*1606 _502__bF_buf4
*1607 BUFX2_insert51
*1608 _2217_
*1609 _2175_
*1610 _2176_
*1611 _2224_
*1612 _2223_
*1613 _2199_
*1614 _2200_
*1615 _2218_
*1616 _502__bF_buf5
*1617 BUFX2_insert50
*1618 _2219_
*1619 _2220_
*1620 _2189_
*1621 _2190_
*1622 _2185_
*1623 _2222_
*1624 _2221_
*1625 _2186_
*1626 _502__bF_buf6
*1627 BUFX2_insert49
*1628 _2174_
*1629 _2173_
*1630 _2194_
*1631 _2193_
*1632 _2208_
*1633 _2207_
*1634 _2216_
*1635 _2215_
*1636 _502__bF_buf7
*1637 BUFX2_insert48
*1638 _2211_
*1639 _2212_
*1640 _2179_
*1641 _2180_
*1642 _2227_
*1643 _2228_
*1644 _2196_
*1645 _2195_
*1646 _1573_
*1647 _3406_
*1648 BUFX2_insert47
*1649 BUFX2_insert41
*1650 BUFX2_insert45
*1651 BUFX2_insert44
*1652 BUFX2_insert42
*1653 BUFX2_insert40
*1654 BUFX2_insert43
*1655 BUFX2_insert46
*1656 _1573__bF_buf0
*1657 BUFX2_insert47
*1658 _3408_
*1659 _3407_
*1660 _3436_
*1661 _3435_
*1662 _3411_
*1663 _3412_
*1664 _3424_
*1665 _3423_
*1666 _1573__bF_buf1
*1667 BUFX2_insert46
*1668 _3417_
*1669 _3418_
*1670 _3450_
*1671 _3449_
*1672 _3426_
*1673 _3425_
*1674 _3454_
*1675 _3453_
*1676 _1573__bF_buf2
*1677 BUFX2_insert45
*1678 _3443_
*1679 _3444_
*1680 _3461_
*1681 _3462_
*1682 _3429_
*1683 _3430_
*1684 _3413_
*1685 _3414_
*1686 _1573__bF_buf3
*1687 BUFX2_insert44
*1688 _3455_
*1689 _3456_
*1690 _3442_
*1691 _3441_
*1692 _3427_
*1693 _3428_
*1694 _3409_
*1695 _3410_
*1696 _1573__bF_buf4
*1697 BUFX2_insert43
*1698 _3415_
*1699 _3416_
*1700 _3434_
*1701 _3433_
*1702 _3465_
*1703 _3466_
*1704 _3431_
*1705 _3432_
*1706 _1573__bF_buf5
*1707 BUFX2_insert42
*1708 _3437_
*1709 _3438_
*1710 _3468_
*1711 _3467_
*1712 _3446_
*1713 _3445_
*1714 _3422_
*1715 _3421_
*1716 _1573__bF_buf6
*1717 BUFX2_insert41
*1718 _3420_
*1719 _3419_
*1720 _3460_
*1721 _3459_
*1722 _3451_
*1723 _3439_
*1724 _3440_
*1725 _3452_
*1726 _1573__bF_buf7
*1727 BUFX2_insert40
*1728 _3470_
*1729 _3469_
*1730 _3457_
*1731 _3458_
*1732 _3448_
*1733 _3447_
*1734 _3464_
*1735 _3463_
*1736 _1606_
*1737 _3471_
*1738 BUFX2_insert22
*1739 BUFX2_insert25
*1740 BUFX2_insert23
*1741 BUFX2_insert24
*1742 BUFX2_insert27
*1743 BUFX2_insert21
*1744 BUFX2_insert28
*1745 BUFX2_insert26
*1746 _1606__bF_buf0
*1747 BUFX2_insert28
*1748 _3486_
*1749 _3487_
*1750 _3522_
*1751 _3523_
*1752 _3535_
*1753 _3534_
*1754 _3528_
*1755 _3529_
*1756 _1606__bF_buf1
*1757 BUFX2_insert27
*1758 _3498_
*1759 _3499_
*1760 _3512_
*1761 _3513_
*1762 _3481_
*1763 _3497_
*1764 _3480_
*1765 _3496_
*1766 _1606__bF_buf2
*1767 BUFX2_insert26
*1768 _3502_
*1769 _3533_
*1770 _3503_
*1771 _3532_
*1772 _3495_
*1773 _3494_
*1774 _3478_
*1775 _3479_
*1776 _1606__bF_buf3
*1777 BUFX2_insert25
*1778 _3484_
*1779 _3485_
*1780 _3526_
*1781 _3527_
*1782 _3511_
*1783 _3510_
*1784 _3501_
*1785 _3500_
*1786 _1606__bF_buf4
*1787 BUFX2_insert24
*1788 _3518_
*1789 _3519_
*1790 _3515_
*1791 _3514_
*1792 _3483_
*1793 _3482_
*1794 _3531_
*1795 _3530_
*1796 _1606__bF_buf5
*1797 BUFX2_insert23
*1798 _3490_
*1799 _3491_
*1800 _3475_
*1801 _3517_
*1802 _3516_
*1803 _3488_
*1804 _3489_
*1805 _3474_
*1806 _1606__bF_buf6
*1807 BUFX2_insert22
*1808 _3509_
*1809 _3508_
*1810 _3473_
*1811 _3472_
*1812 _3525_
*1813 _3524_
*1814 _3477_
*1815 _3476_
*1816 _1606__bF_buf7
*1817 BUFX2_insert21
*1818 _3507_
*1819 _3506_
*1820 _3493_
*1821 _3492_
*1822 _3505_
*1823 _3504_
*1824 _3521_
*1825 _3520_
*1826 _467_
*1827 _2103_
*1828 BUFX2_insert14
*1829 BUFX2_insert15
*1830 BUFX2_insert16
*1831 BUFX2_insert13
*1832 BUFX2_insert18
*1833 BUFX2_insert19
*1834 BUFX2_insert17
*1835 BUFX2_insert20
*1836 _467__bF_buf0
*1837 BUFX2_insert20
*1838 _2153_
*1839 _2152_
*1840 _2136_
*1841 _2137_
*1842 _2166_
*1843 _2167_
*1844 _2119_
*1845 _2118_
*1846 _467__bF_buf1
*1847 BUFX2_insert19
*1848 _2160_
*1849 _2161_
*1850 _2145_
*1851 _2144_
*1852 _2155_
*1853 _2154_
*1854 _2139_
*1855 _2138_
*1856 _467__bF_buf2
*1857 BUFX2_insert18
*1858 _2148_
*1859 _2149_
*1860 _2107_
*1861 _2106_
*1862 _2115_
*1863 _2114_
*1864 _2146_
*1865 _2147_
*1866 _467__bF_buf3
*1867 BUFX2_insert17
*1868 _2129_
*1869 _2128_
*1870 _2130_
*1871 _2131_
*1872 _2163_
*1873 _2162_
*1874 _2112_
*1875 _2113_
*1876 _467__bF_buf4
*1877 BUFX2_insert16
*1878 _2135_
*1879 _2134_
*1880 _2117_
*1881 _2116_
*1882 _2111_
*1883 _2110_
*1884 _2132_
*1885 _2133_
*1886 _467__bF_buf5
*1887 BUFX2_insert15
*1888 _2150_
*1889 _2151_
*1890 _2142_
*1891 _2143_
*1892 _2158_
*1893 _2159_
*1894 _2127_
*1895 _2126_
*1896 _467__bF_buf6
*1897 BUFX2_insert14
*1898 _2141_
*1899 _2140_
*1900 _2156_
*1901 _2157_
*1902 _2108_
*1903 _2109_
*1904 _2104_
*1905 _2105_
*1906 _467__bF_buf7
*1907 BUFX2_insert13
*1908 _2120_
*1909 _2121_
*1910 _2164_
*1911 _2165_
*1912 _2124_
*1913 _2125_
*1914 _2123_
*1915 _2122_
*1916 _1674_
*1917 _3603_
*1918 BUFX2_insert6
*1919 BUFX2_insert5
*1920 BUFX2_insert4
*1921 BUFX2_insert3
*1922 BUFX2_insert2
*1923 BUFX2_insert0
*1924 BUFX2_insert1
*1925 BUFX2_insert7
*1926 _1674__bF_buf0
*1927 BUFX2_insert7
*1928 _3659_
*1929 _3657_
*1930 _3656_
*1931 _3611_
*1932 _3610_
*1933 _3658_
*1934 _3605_
*1935 _3604_
*1936 _1674__bF_buf1
*1937 BUFX2_insert6
*1938 _3633_
*1939 _3632_
*1940 _3616_
*1941 _3617_
*1942 _3643_
*1943 _3642_
*1944 _3620_
*1945 _3621_
*1946 _1674__bF_buf2
*1947 BUFX2_insert5
*1948 _3627_
*1949 _3626_
*1950 _3640_
*1951 _3641_
*1952 _3606_
*1953 _3607_
*1954 _3665_
*1955 _3664_
*1956 _1674__bF_buf3
*1957 BUFX2_insert4
*1958 _3614_
*1959 _3615_
*1960 _3644_
*1961 _3645_
*1962 _3647_
*1963 _3646_
*1964 _3622_
*1965 _3623_
*1966 _1674__bF_buf4
*1967 BUFX2_insert3
*1968 _3662_
*1969 _3663_
*1970 _3628_
*1971 _3629_
*1972 _3612_
*1973 _3613_
*1974 _3660_
*1975 _3661_
*1976 _1674__bF_buf5
*1977 BUFX2_insert2
*1978 _3618_
*1979 _3619_
*1980 _3635_
*1981 _3634_
*1982 _3655_
*1983 _3654_
*1984 _3666_
*1985 _3667_
*1986 _1674__bF_buf6
*1987 BUFX2_insert1
*1988 _3651_
*1989 _3650_
*1990 _3624_
*1991 _3625_
*1992 _3608_
*1993 _3649_
*1994 _3648_
*1995 _3609_
*1996 _1674__bF_buf7
*1997 BUFX2_insert0
*1998 _3639_
*1999 _3638_
*2000 _3630_
*2001 _3631_
*2002 _3652_
*2003 _3636_
*2004 _3637_
*2005 _3653_
*2006 _1754_
*2007 _1866_
*2008 _1877_
*2009 _1894_
*2010 _1884_
*2011 _1889_
*2012 _1893_
*2013 _1872_
*2014 _1867_
*2015 _1890_
*2016 _394_
*2017 _1997_
*2018 _3670_
*2019 _2008_
*2020 _2172_
*2021 _3408_
*2022 _1999_
*2023 _3473_
*2024 _2105_
*2025 _3538_
*2026 pclk
*2027 CLKBUF1_insert253
*2028 CLKBUF1_insert255
*2029 CLKBUF1_insert251
*2030 CLKBUF1_insert256
*2031 CLKBUF1_insert252
*2032 CLKBUF1_insert257
*2033 CLKBUF1_insert254
*2034 pclk_hier0_bF_buf0
*2035 CLKBUF1_insert257
*2036 CLKBUF1_insert162
*2037 CLKBUF1_insert195
*2038 CLKBUF1_insert159
*2039 CLKBUF1_insert193
*2040 CLKBUF1_insert155
*2041 CLKBUF1_insert150
*2042 CLKBUF1_insert160
*2043 pclk_hier0_bF_buf1
*2044 CLKBUF1_insert256
*2045 CLKBUF1_insert152
*2046 CLKBUF1_insert156
*2047 CLKBUF1_insert184
*2048 CLKBUF1_insert186
*2049 CLKBUF1_insert161
*2050 CLKBUF1_insert149
*2051 CLKBUF1_insert164
*2052 pclk_hier0_bF_buf2
*2053 CLKBUF1_insert255
*2054 CLKBUF1_insert153
*2055 CLKBUF1_insert148
*2056 CLKBUF1_insert179
*2057 CLKBUF1_insert154
*2058 CLKBUF1_insert180
*2059 CLKBUF1_insert167
*2060 CLKBUF1_insert144
*2061 presetn
*2062 BUFX2_insert246
*2063 BUFX2_insert244
*2064 BUFX2_insert247
*2065 BUFX2_insert249
*2066 BUFX2_insert248
*2067 BUFX2_insert245
*2068 BUFX2_insert250
*2069 presetn_hier0_bF_buf0
*2070 BUFX2_insert250
*2071 BUFX2_insert124
*2072 BUFX2_insert105
*2073 BUFX2_insert94
*2074 BUFX2_insert115
*2075 BUFX2_insert121
*2076 BUFX2_insert123
*2077 BUFX2_insert89
*2078 presetn_hier0_bF_buf1
*2079 BUFX2_insert249
*2080 BUFX2_insert111
*2081 BUFX2_insert86
*2082 BUFX2_insert85
*2083 BUFX2_insert91
*2084 BUFX2_insert114
*2085 BUFX2_insert103
*2086 BUFX2_insert100
*2087 presetn_hier0_bF_buf2
*2088 BUFX2_insert248
*2089 BUFX2_insert77
*2090 BUFX2_insert102
*2091 BUFX2_insert76
*2092 BUFX2_insert113
*2093 BUFX2_insert80
*2094 BUFX2_insert82
*2095 BUFX2_insert93
*2096 pclk_bF_buf0
*2097 CLKBUF1_insert195
*2098 _3784_
*2099 _3811_
*2100 _3852_
*2101 _3830_
*2102 _3829_
*2103 _3901_
*2104 _3792_
*2105 pclk_bF_buf1
*2106 CLKBUF1_insert194
*2107 _3750_
*2108 _3846_
*2109 _3892_
*2110 _3994_
*2111 _3934_
*2112 _4099_
*2113 _4006_
*2114 pclk_bF_buf2
*2115 CLKBUF1_insert193
*2116 _3861_
*2117 _3765_
*2118 _3998_
*2119 _4022_
*2120 _3971_
*2121 _3965_
*2122 _3996_
*2123 pclk_bF_buf3
*2124 CLKBUF1_insert192
*2125 _3764_
*2126 _3740_
*2127 _4093_
*2128 _3908_
*2129 _4061_
*2130 _4043_
*2131 _3978_
*2132 pclk_bF_buf4
*2133 CLKBUF1_insert191
*2134 _3825_
*2135 _3809_
*2136 _3833_
*2137 _3841_
*2138 _3801_
*2139 _3865_
*2140 _3857_
*2141 pclk_bF_buf5
*2142 CLKBUF1_insert190
*2143 _4020_
*2144 _4076_
*2145 _3758_
*2146 _4012_
*2147 _3806_
*2148 _4053_
*2149 _4084_
*2150 pclk_bF_buf6
*2151 CLKBUF1_insert189
*2152 _3983_
*2153 _3991_
*2154 _4088_
*2155 _3785_
*2156 _3921_
*2157 _3897_
*2158 _3881_
*2159 pclk_bF_buf7
*2160 CLKBUF1_insert188
*2161 _4072_
*2162 _4064_
*2163 _4121_
*2164 _4096_
*2165 _4120_
*2166 _4089_
*2167 _4112_
*2168 pclk_bF_buf8
*2169 CLKBUF1_insert187
*2170 _3993_
*2171 _4058_
*2172 _3748_
*2173 _3751_
*2174 _4078_
*2175 _3923_
*2176 _3780_
*2177 pclk_bF_buf9
*2178 CLKBUF1_insert186
*2179 _3757_
*2180 _3986_
*2181 _3870_
*2182 _3902_
*2183 _3898_
*2184 _3968_
*2185 _4073_
*2186 pclk_bF_buf10
*2187 CLKBUF1_insert185
*2188 _4075_
*2189 _4117_
*2190 _3988_
*2191 _4027_
*2192 _4085_
*2193 _4021_
*2194 _4069_
*2195 pclk_bF_buf11
*2196 CLKBUF1_insert184
*2197 _3775_
*2198 _3972_
*2199 _3914_
*2200 _4019_
*2201 _3839_
*2202 _3774_
*2203 _4005_
*2204 pclk_bF_buf12
*2205 CLKBUF1_insert183
*2206 _4062_
*2207 _3755_
*2208 _3909_
*2209 _4094_
*2210 _3819_
*2211 _3734_
*2212 _3735_
*2213 pclk_bF_buf13
*2214 CLKBUF1_insert182
*2215 _3878_
*2216 _4013_
*2217 _3790_
*2218 _3932_
*2219 _3772_
*2220 _4097_
*2221 _3742_
*2222 pclk_bF_buf14
*2223 CLKBUF1_insert181
*2224 _3975_
*2225 _4000_
*2226 _4008_
*2227 _3769_
*2228 _4056_
*2229 _3745_
*2230 _3737_
*2231 pclk_bF_buf15
*2232 CLKBUF1_insert180
*2233 _3933_
*2234 _3771_
*2235 _3944_
*2236 _4026_
*2237 _4098_
*2238 _4079_
*2239 _4066_
*2240 pclk_bF_buf16
*2241 CLKBUF1_insert179
*2242 _4087_
*2243 _4106_
*2244 _4103_
*2245 _3928_
*2246 _3920_
*2247 _3904_
*2248 _3931_
*2249 pclk_bF_buf17
*2250 CLKBUF1_insert178
*2251 _3812_
*2252 _4011_
*2253 _4110_
*2254 _4111_
*2255 _3828_
*2256 _4071_
*2257 _3936_
*2258 pclk_bF_buf18
*2259 CLKBUF1_insert177
*2260 _4046_
*2261 _3949_
*2262 _3853_
*2263 _3907_
*2264 _3872_
*2265 _3917_
*2266 _4114_
*2267 pclk_bF_buf19
*2268 CLKBUF1_insert176
*2269 _3905_
*2270 _3777_
*2271 _4032_
*2272 _3873_
*2273 _3967_
*2274 _4048_
*2275 _3945_
*2276 pclk_bF_buf20
*2277 CLKBUF1_insert175
*2278 _3766_
*2279 _3979_
*2280 _3798_
*2281 _3827_
*2282 _3744_
*2283 _4083_
*2284 _4070_
*2285 pclk_bF_buf21
*2286 CLKBUF1_insert174
*2287 _3880_
*2288 _3894_
*2289 _3919_
*2290 _3969_
*2291 _3788_
*2292 _3951_
*2293 _3843_
*2294 pclk_bF_buf22
*2295 CLKBUF1_insert173
*2296 _3746_
*2297 _4016_
*2298 _3778_
*2299 _3794_
*2300 _3753_
*2301 _3992_
*2302 _3761_
*2303 pclk_bF_buf23
*2304 CLKBUF1_insert172
*2305 _3970_
*2306 _4091_
*2307 _3822_
*2308 _4035_
*2309 _3804_
*2310 _3956_
*2311 _4045_
*2312 pclk_bF_buf24
*2313 CLKBUF1_insert171
*2314 _4082_
*2315 _4030_
*2316 _3752_
*2317 _3805_
*2318 _3767_
*2319 _3855_
*2320 _3823_
*2321 pclk_bF_buf25
*2322 CLKBUF1_insert170
*2323 _3935_
*2324 _3918_
*2325 _3987_
*2326 _3844_
*2327 _3876_
*2328 _3891_
*2329 _3903_
*2330 pclk_bF_buf26
*2331 CLKBUF1_insert169
*2332 _3796_
*2333 _4123_
*2334 _3781_
*2335 _3940_
*2336 _3900_
*2337 _4107_
*2338 _4059_
*2339 pclk_bF_buf27
*2340 CLKBUF1_insert168
*2341 _3997_
*2342 _3883_
*2343 _3941_
*2344 _3773_
*2345 _3871_
*2346 _4051_
*2347 _3840_
*2348 pclk_bF_buf28
*2349 CLKBUF1_insert167
*2350 _4100_
*2351 _4095_
*2352 _4063_
*2353 _4119_
*2354 _3800_
*2355 _4007_
*2356 _3768_
*2357 pclk_bF_buf29
*2358 CLKBUF1_insert166
*2359 _3754_
*2360 _3834_
*2361 _3818_
*2362 _3882_
*2363 _4009_
*2364 _3786_
*2365 _3850_
*2366 pclk_bF_buf30
*2367 CLKBUF1_insert165
*2368 _4104_
*2369 _4067_
*2370 _4081_
*2371 _4080_
*2372 _4065_
*2373 _4113_
*2374 _4003_
*2375 pclk_bF_buf31
*2376 CLKBUF1_insert164
*2377 _4102_
*2378 _4038_
*2379 _4109_
*2380 _3838_
*2381 _3910_
*2382 _3950_
*2383 _3868_
*2384 pclk_bF_buf32
*2385 CLKBUF1_insert163
*2386 _3810_
*2387 _4041_
*2388 _3842_
*2389 _4040_
*2390 _3817_
*2391 _3849_
*2392 _4057_
*2393 presetn_bF_buf0
*2394 BUFX2_insert126
*2395 _3871_
*2396 _4005_
*2397 _3839_
*2398 _3997_
*2399 _3883_
*2400 _3870_
*2401 _3775_
*2402 presetn_bF_buf1
*2403 BUFX2_insert125
*2404 _4077_
*2405 _3902_
*2406 _3964_
*2407 _3840_
*2408 _3948_
*2409 _3886_
*2410 _3986_
*2411 presetn_bF_buf2
*2412 BUFX2_insert124
*2413 _4021_
*2414 _4117_
*2415 _4075_
*2416 _4069_
*2417 _4027_
*2418 _3988_
*2419 _4085_
*2420 presetn_bF_buf3
*2421 BUFX2_insert123
*2422 _3785_
*2423 _4088_
*2424 _3881_
*2425 _3897_
*2426 _3782_
*2427 _3921_
*2428 _3905_
*2429 presetn_bF_buf4
*2430 BUFX2_insert122
*2431 _3802_
*2432 _4017_
*2433 _3984_
*2434 _3972_
*2435 _3938_
*2436 _4019_
*2437 _3813_
*2438 presetn_bF_buf5
*2439 BUFX2_insert121
*2440 _3991_
*2441 _3945_
*2442 _3967_
*2443 _3873_
*2444 _4048_
*2445 _4032_
*2446 _3777_
*2447 presetn_bF_buf6
*2448 BUFX2_insert120
*2449 _3752_
*2450 _3805_
*2451 _3767_
*2452 _4022_
*2453 _3971_
*2454 _3965_
*2455 _3996_
*2456 presetn_bF_buf7
*2457 BUFX2_insert119
*2458 _3864_
*2459 _3990_
*2460 _3981_
*2461 _3912_
*2462 _3803_
*2463 _3904_
*2464 _4047_
*2465 presetn_bF_buf8
*2466 BUFX2_insert118
*2467 _3814_
*2468 _3942_
*2469 _3790_
*2470 _4097_
*2471 _3742_
*2472 _4013_
*2473 _3878_
*2474 presetn_bF_buf9
*2475 BUFX2_insert117
*2476 _3927_
*2477 _3808_
*2478 _3851_
*2479 _3845_
*2480 _3774_
*2481 _3859_
*2482 _3837_
*2483 presetn_bF_buf10
*2484 BUFX2_insert116
*2485 _3976_
*2486 _3858_
*2487 _4025_
*2488 _3890_
*2489 _4057_
*2490 _4041_
*2491 _3738_
*2492 presetn_bF_buf11
*2493 BUFX2_insert115
*2494 _3983_
*2495 _3793_
*2496 _3932_
*2497 _3929_
*2498 _3924_
*2499 _3937_
*2500 _3954_
*2501 presetn_bF_buf12
*2502 BUFX2_insert114
*2503 _3758_
*2504 _4012_
*2505 _3868_
*2506 _3950_
*2507 _3838_
*2508 _3772_
*2509 _3934_
*2510 presetn_bF_buf13
*2511 BUFX2_insert113
*2512 _3771_
*2513 _4106_
*2514 _3931_
*2515 _4103_
*2516 _3933_
*2517 _4098_
*2518 _4079_
*2519 presetn_bF_buf14
*2520 BUFX2_insert112
*2521 _3734_
*2522 _3735_
*2523 _3756_
*2524 _4082_
*2525 _3816_
*2526 _4030_
*2527 _3759_
*2528 presetn_bF_buf15
*2529 BUFX2_insert111
*2530 _3993_
*2531 _4116_
*2532 _4058_
*2533 _3804_
*2534 _4035_
*2535 _4043_
*2536 _4061_
*2537 presetn_bF_buf16
*2538 BUFX2_insert110
*2539 _4050_
*2540 _4051_
*2541 _3773_
*2542 _3915_
*2543 _3880_
*2544 _3869_
*2545 _3941_
*2546 presetn_bF_buf17
*2547 BUFX2_insert109
*2548 _3952_
*2549 _3856_
*2550 _3896_
*2551 _4060_
*2552 _4092_
*2553 _3733_
*2554 _4031_
*2555 presetn_bF_buf18
*2556 BUFX2_insert108
*2557 _4029_
*2558 _3862_
*2559 _4004_
*2560 _4018_
*2561 _3894_
*2562 _3919_
*2563 _3847_
*2564 presetn_bF_buf19
*2565 BUFX2_insert107
*2566 _4009_
*2567 _3794_
*2568 _3882_
*2569 _3762_
*2570 _3818_
*2571 _3746_
*2572 _3754_
*2573 presetn_bF_buf20
*2574 BUFX2_insert106
*2575 _3911_
*2576 _4046_
*2577 _3949_
*2578 _3917_
*2579 _4114_
*2580 _4039_
*2581 _4055_
*2582 presetn_bF_buf21
*2583 BUFX2_insert105
*2584 _4003_
*2585 _4113_
*2586 _4099_
*2587 _3994_
*2588 _3750_
*2589 _3846_
*2590 _3796_
*2591 presetn_bF_buf22
*2592 BUFX2_insert104
*2593 _3826_
*2594 _3834_
*2595 _3786_
*2596 _3850_
*2597 _4001_
*2598 _3770_
*2599 _3874_
*2600 presetn_bF_buf23
*2601 BUFX2_insert103
*2602 _3877_
*2603 _3980_
*2604 _3884_
*2605 _3795_
*2606 _3987_
*2607 _3885_
*2608 _3947_
*2609 presetn_bF_buf24
*2610 BUFX2_insert102
*2611 _4111_
*2612 _4110_
*2613 _3828_
*2614 _4026_
*2615 _4071_
*2616 _4066_
*2617 _3944_
*2618 presetn_bF_buf25
*2619 BUFX2_insert101
*2620 _3737_
*2621 _3769_
*2622 _4056_
*2623 _3841_
*2624 _3809_
*2625 _4008_
*2626 _4000_
*2627 presetn_bF_buf26
*2628 BUFX2_insert100
*2629 _3935_
*2630 _3891_
*2631 _3903_
*2632 _3844_
*2633 _3876_
*2634 _3943_
*2635 _4118_
*2636 presetn_bF_buf27
*2637 BUFX2_insert99
*2638 _3985_
*2639 _3741_
*2640 _3815_
*2641 _3989_
*2642 _3831_
*2643 _4034_
*2644 _3799_
*2645 presetn_bF_buf28
*2646 BUFX2_insert98
*2647 _3811_
*2648 _3852_
*2649 _3784_
*2650 _4036_
*2651 _3820_
*2652 _4054_
*2653 _4002_
*2654 presetn_bF_buf29
*2655 BUFX2_insert97
*2656 _3778_
*2657 _4016_
*2658 _3753_
*2659 _3745_
*2660 _3992_
*2661 _3761_
*2662 _3975_
*2663 presetn_bF_buf30
*2664 BUFX2_insert96
*2665 _3848_
*2666 _3823_
*2667 _3855_
*2668 _3861_
*2669 _3998_
*2670 _3765_
*2671 _3783_
*2672 presetn_bF_buf31
*2673 BUFX2_insert95
*2674 _3887_
*2675 _3962_
*2676 _3835_
*2677 _3739_
*2678 _3879_
*2679 _3863_
*2680 _4023_
*2681 presetn_bF_buf32
*2682 BUFX2_insert94
*2683 _4024_
*2684 _3953_
*2685 _4101_
*2686 _4065_
*2687 _4080_
*2688 _4104_
*2689 _4081_
*2690 _404_
*2691 _2009_
*2692 _3672_
*2693 _3410_
*2694 _3475_
*2695 _3540_
*2696 _2174_
*2697 _2107_
*2698 _2011_
*2699 _406_
*2700 _2012_
*2701 _2014_
*2702 _2176_
*2703 _3542_
*2704 _2109_
*2705 _3477_
*2706 _3412_
*2707 _3674_
*2708 _408_
*2709 _2015_
*2710 _3676_
*2711 _2111_
*2712 _3414_
*2713 _2017_
*2714 _3544_
*2715 _2178_
*2716 _3479_
*2717 _410_
*2718 _2018_
*2719 _3678_
*2720 _3416_
*2721 _3546_
*2722 _2180_
*2723 _2020_
*2724 _2113_
*2725 _3481_
*2726 _412_
*2727 _2021_
*2728 _3680_
*2729 _3418_
*2730 _2182_
*2731 _3548_
*2732 _2115_
*2733 _3483_
*2734 _2023_
*2735 _414_
*2736 _2024_
*2737 _3682_
*2738 _2117_
*2739 _2184_
*2740 _3420_
*2741 _3550_
*2742 _2026_
*2743 _3485_
*2744 _416_
*2745 _2027_
*2746 _3487_
*2747 _2186_
*2748 _3422_
*2749 _3552_
*2750 _2029_
*2751 _3684_
*2752 _2119_
*2753 _418_
*2754 _2030_
*2755 _3686_
*2756 _3554_
*2757 _2188_
*2758 _3424_
*2759 _2032_
*2760 _3489_
*2761 _2121_
*2762 _420_
*2763 _2033_
*2764 _3688_
*2765 _2035_
*2766 _3426_
*2767 _3491_
*2768 _2123_
*2769 _3556_
*2770 _2190_
*2771 _422_
*2772 _2036_
*2773 _2192_
*2774 _2038_
*2775 _2125_
*2776 _3428_
*2777 _3558_
*2778 _3690_
*2779 _3493_
*2780 _424_
*2781 _2039_
*2782 _3692_
*2783 _3495_
*2784 _3430_
*2785 _3560_
*2786 _2127_
*2787 _2194_
*2788 _2041_
*2789 _426_
*2790 _2042_
*2791 _3694_
*2792 _3562_
*2793 _2129_
*2794 _2196_
*2795 _3497_
*2796 _3432_
*2797 _2044_
*2798 _428_
*2799 _2045_
*2800 _3696_
*2801 _2047_
*2802 _2131_
*2803 _3499_
*2804 _3434_
*2805 _3564_
*2806 _2198_
*2807 _430_
*2808 _2048_
*2809 _3698_
*2810 _3501_
*2811 _3566_
*2812 _2133_
*2813 _2050_
*2814 _3436_
*2815 _2200_
*2816 _432_
*2817 _2051_
*2818 _3700_
*2819 _3568_
*2820 _3438_
*2821 _2053_
*2822 _3503_
*2823 _2135_
*2824 _2202_
*2825 _434_
*2826 _2054_
*2827 _2137_
*2828 _3505_
*2829 _2204_
*2830 _3570_
*2831 _2056_
*2832 _3440_
*2833 _3702_
*2834 _436_
*2835 _2057_
*2836 _2206_
*2837 _3704_
*2838 _2139_
*2839 _3507_
*2840 _2059_
*2841 _3572_
*2842 _3442_
*2843 _438_
*2844 _2060_
*2845 _2062_
*2846 _3706_
*2847 _3574_
*2848 _2208_
*2849 _2141_
*2850 _3509_
*2851 _3444_
*2852 _440_
*2853 _2063_
*2854 _3708_
*2855 _3446_
*2856 _3576_
*2857 _3511_
*2858 _2143_
*2859 _2210_
*2860 _2065_
*2861 _442_
*2862 _2066_
*2863 _3710_
*2864 _3448_
*2865 _2145_
*2866 _3578_
*2867 _2212_
*2868 _3513_
*2869 _2068_
*2870 _444_
*2871 _2069_
*2872 _3712_
*2873 _3450_
*2874 _3515_
*2875 _3580_
*2876 _2147_
*2877 _2214_
*2878 _2071_
*2879 _446_
*2880 _2072_
*2881 _2216_
*2882 _2074_
*2883 _3452_
*2884 _2149_
*2885 _3517_
*2886 _3582_
*2887 _3714_
*2888 _448_
*2889 _2075_
*2890 _3716_
*2891 _3519_
*2892 _3584_
*2893 _3454_
*2894 _2077_
*2895 _2218_
*2896 _2151_
*2897 _450_
*2898 _2078_
*2899 _3521_
*2900 _3586_
*2901 _2153_
*2902 _2220_
*2903 _2080_
*2904 _3456_
*2905 _3718_
*2906 _452_
*2907 _2081_
*2908 _2222_
*2909 _3588_
*2910 _2083_
*2911 _3720_
*2912 _3458_
*2913 _3523_
*2914 _2155_
*2915 _454_
*2916 _2084_
*2917 _3722_
*2918 _2157_
*2919 _3525_
*2920 _2224_
*2921 _2086_
*2922 _3590_
*2923 _3460_
*2924 _456_
*2925 _2087_
*2926 _3724_
*2927 _2089_
*2928 _2226_
*2929 _3527_
*2930 _2159_
*2931 _3592_
*2932 _3462_
*2933 _458_
*2934 _2090_
*2935 _3464_
*2936 _3529_
*2937 _3726_
*2938 _2161_
*2939 _2228_
*2940 _3594_
*2941 _2092_
*2942 _460_
*2943 _2093_
*2944 _3728_
*2945 _3596_
*2946 _3531_
*2947 _2095_
*2948 _2163_
*2949 _3466_
*2950 _2230_
*2951 _462_
*2952 _2096_
*2953 _3468_
*2954 _3598_
*2955 _2165_
*2956 _2232_
*2957 _2098_
*2958 _3533_
*2959 _3730_
*2960 _464_
*2961 _2099_
*2962 _3732_
*2963 _2167_
*2964 _3535_
*2965 _3470_
*2966 _2101_
*2967 _2234_
*2968 _3600_
*2969 _1792__bF_buf0
*2970 BUFX2_insert227
*2971 _1967_
*2972 _1925_
*2973 _1931_
*2974 _1976_
*2975 _1949_
*2976 _1970_
*2977 _1792__bF_buf1
*2978 BUFX2_insert226
*2979 _1964_
*2980 _1988_
*2981 _1961_
*2982 _1913_
*2983 _1937_
*2984 _1985_
*2985 _1792__bF_buf2
*2986 BUFX2_insert225
*2987 _1979_
*2988 _1955_
*2989 _1958_
*2990 _1919_
*2991 _1982_
*2992 _1910_
*2993 _1792__bF_buf3
*2994 BUFX2_insert224
*2995 _1943_
*2996 _1934_
*2997 _1973_
*2998 _1946_
*2999 _1907_
*3000 _1991_
*3001 _1792__bF_buf4
*3002 BUFX2_insert223
*3003 _1940_
*3004 _1916_
*3005 _1928_
*3006 _1952_
*3007 _1994_
*3008 _1922_
*3009 _1784__bF_buf0
*3010 BUFX2_insert131
*3011 _1965_
*3012 _1989_
*3013 _1986_
*3014 _1914_
*3015 _1938_
*3016 _1962_
*3017 _1784__bF_buf1
*3018 BUFX2_insert130
*3019 _1974_
*3020 _1935_
*3021 _1950_
*3022 _1947_
*3023 _1971_
*3024 _1977_
*3025 _1784__bF_buf2
*3026 BUFX2_insert129
*3027 _1917_
*3028 _1941_
*3029 _1929_
*3030 _1953_
*3031 _1995_
*3032 _1923_
*3033 _1784__bF_buf3
*3034 BUFX2_insert128
*3035 _1980_
*3036 _1920_
*3037 _1956_
*3038 _1911_
*3039 _1983_
*3040 _1959_
*3041 _1784__bF_buf4
*3042 BUFX2_insert127
*3043 _1944_
*3044 _1926_
*3045 _1932_
*3046 _1968_
*3047 _1908_
*3048 _1992_
*3049 _1787__bF_buf0
*3050 BUFX2_insert73
*3051 _1963_
*3052 _1987_
*3053 _1960_
*3054 _1912_
*3055 _1936_
*3056 _1984_
*3057 _1787__bF_buf1
*3058 BUFX2_insert72
*3059 _1954_
*3060 _1918_
*3061 _1909_
*3062 _1981_
*3063 _1957_
*3064 _1933_
*3065 _1787__bF_buf2
*3066 BUFX2_insert71
*3067 _1945_
*3068 _1948_
*3069 _1966_
*3070 _1930_
*3071 _1975_
*3072 _1969_
*3073 _1787__bF_buf3
*3074 BUFX2_insert70
*3075 _1972_
*3076 _1990_
*3077 _1942_
*3078 _1924_
*3079 _1903_
*3080 _1978_
*3081 _1787__bF_buf4
*3082 BUFX2_insert69
*3083 _1927_
*3084 _1915_
*3085 _1939_
*3086 _1951_
*3087 _1993_
*3088 _1921_
*3089 _1790__bF_buf0
*3090 BUFX2_insert68
*3091 _1955_
*3092 _1919_
*3093 _1910_
*3094 _1982_
*3095 _1979_
*3096 _1958_
*3097 _1790__bF_buf1
*3098 BUFX2_insert67
*3099 _1988_
*3100 _1985_
*3101 _1937_
*3102 _1961_
*3103 _1913_
*3104 _1964_
*3105 _1790__bF_buf2
*3106 BUFX2_insert66
*3107 _1928_
*3108 _1940_
*3109 _1916_
*3110 _1967_
*3111 _1925_
*3112 _1931_
*3113 _1790__bF_buf3
*3114 BUFX2_insert65
*3115 _1973_
*3116 _1934_
*3117 _1907_
*3118 _1991_
*3119 _1943_
*3120 _1946_
*3121 _1790__bF_buf4
*3122 BUFX2_insert64
*3123 _1949_
*3124 _1976_
*3125 _1970_
*3126 _1952_
*3127 _1994_
*3128 _1922_
*3129 _1788__bF_buf0
*3130 BUFX2_insert12
*3131 _1972_
*3132 _1990_
*3133 _1978_
*3134 _1924_
*3135 _1903_
*3136 _1942_
*3137 _1788__bF_buf1
*3138 BUFX2_insert11
*3139 _1927_
*3140 _1951_
*3141 _1921_
*3142 _1993_
*3143 _1915_
*3144 _1939_
*3145 _1788__bF_buf2
*3146 BUFX2_insert10
*3147 _1963_
*3148 _1987_
*3149 _1960_
*3150 _1936_
*3151 _1912_
*3152 _1984_
*3153 _1788__bF_buf3
*3154 BUFX2_insert9
*3155 _1966_
*3156 _1930_
*3157 _1975_
*3158 _1948_
*3159 _1945_
*3160 _1969_
*3161 _1788__bF_buf4
*3162 BUFX2_insert8
*3163 _1954_
*3164 _1981_
*3165 _1957_
*3166 _1909_
*3167 _1918_
*3168 _1933_
*3169 _1792_
*3170 _1906_
*3171 BUFX2_insert225
*3172 BUFX2_insert224
*3173 BUFX2_insert227
*3174 BUFX2_insert223
*3175 BUFX2_insert226
*3176 _1784_
*3177 _1898_
*3178 BUFX2_insert128
*3179 BUFX2_insert127
*3180 BUFX2_insert130
*3181 BUFX2_insert129
*3182 BUFX2_insert131
*3183 _1787_
*3184 _1901_
*3185 BUFX2_insert72
*3186 BUFX2_insert70
*3187 BUFX2_insert71
*3188 BUFX2_insert69
*3189 BUFX2_insert73
*3190 _1790_
*3191 _1904_
*3192 BUFX2_insert68
*3193 BUFX2_insert65
*3194 BUFX2_insert64
*3195 BUFX2_insert66
*3196 BUFX2_insert67
*3197 _1788_
*3198 _1902_
*3199 BUFX2_insert8
*3200 BUFX2_insert9
*3201 BUFX2_insert11
*3202 BUFX2_insert10
*3203 BUFX2_insert12
*3204 _0_
*3205 _1858_
*3206 _3390_
*3207 _3397_
*3208 _3394_
*3209 _3957_
*3210 _3391_
*3211 paddr[3]
*3212 _1882_
*3213 _1874_
*3214 _1870_
*3215 _1900_
*3216 _1863_
*3217 paddr[2]
*3218 _1882_
*3219 _1869_
*3220 _1875_
*3221 _1905_
*3222 _1863_
*3223 _1752_
*3224 _1864_
*3225 _1996_
*3226 _1881_
*3227 _1892_
*3228 _1893_
*3229 _1867_
*3230 paddr[5]
*3231 _1865_
*3232 _2168_
*3233 _2002_
*3234 _1899_
*3235 _1879_
*3236 _395_
*3237 _1998_
*3238 _2005_
*3239 _3405_
*3240 _2102_
*3241 _3601_
*3242 _1999_
*3243 _1746_
*3244 _1857_
*3245 _3399_
*3246 _3401_
*3247 _3394_
*3248 _1858_
*3249 _1750_
*3250 _1862_
*3251 _1905_
*3252 _1900_
*3253 _1864_
*3254 _2004_
*3255 paddr[4]
*3256 _1865_
*3257 _2001_
*3258 _1899_
*3259 _1879_
*3260 _1766_
*3261 _1878_
*3262 _1880_
*3263 _2169_
*3264 _2003_
*3265 _1899_
*3266 _399_
*3267 _2003_
*3268 _2006_
*3269 _3406_
*3270 _2103_
*3271 _3668_
*3272 _501_
*3273 _2169_
*3274 _2170_
*3275 _3536_
*3276 _3603_
*3277 _3471_
*3278 _1560_
*3279 _3388_
*3280 _3391_
*3281 _3390_
*3282 _3396_
*3283 _3392_
*3284 _1741_
*3285 _1852_
*3286 _3394_
*3287 _3396_
*3288 _1853_
*3289 round_cnt[2]
*3290 _3960_
*3291 _3395_
*3292 _1855_
*3293 _3398_
*3294 _1748_
*3295 _1860_
*3296 _1886_
*3297 _1896_
*3298 _1898_
*3299 paddr[1]
*3300 _1868_
*3301 _1862_
*3302 _1883_
*3303 paddr[0]
*3304 _1883_
*3305 _1868_
*3306 _1862_
*3307 state_reg[64]
*3308 _3893_
*3309 _2813_
*3310 _2888_
*3311 _1872_
*3312 state_reg[32]
*3313 _3861_
*3314 _1877_
*3315 _2600_
*3316 _2525_
*3317 _1768_
*3318 _1880_
*3319 _1996_
*3320 _1881_
*3321 _1892_
*3322 _1771_
*3323 _1883_
*3324 _3602_
*3325 _1884_
*3326 _1889_
*3327 state_reg[96]
*3328 _3925_
*3329 _1884_
*3330 _3101_
*3331 _3175_
*3332 state_reg[65]
*3333 _3894_
*3334 _1890_
*3335 _2897_
*3336 _2822_
*3337 state_reg[1]
*3338 _3830_
*3339 _2246_
*3340 _1893_
*3341 _2321_
*3342 state_reg[33]
*3343 _3862_
*3344 _1894_
*3345 _2534_
*3346 _2609_
*3347 state_reg[66]
*3348 _3895_
*3349 _2831_
*3350 _2906_
*3351 _1903_
*3352 state_reg[98]
*3353 _3927_
*3354 _3118_
*3355 _3193_
*3356 _1903_
*3357 state_reg[34]
*3358 _3863_
*3359 _2618_
*3360 _1907_
*3361 _2543_
*3362 state_reg[2]
*3363 _3831_
*3364 _2255_
*3365 _2330_
*3366 _1907_
*3367 state_reg[67]
*3368 _3896_
*3369 _2840_
*3370 _2915_
*3371 _1909_
*3372 state_reg[99]
*3373 _3928_
*3374 _3127_
*3375 _1909_
*3376 _3202_
*3377 state_reg[35]
*3378 _3864_
*3379 _2552_
*3380 _2627_
*3381 _1910_
*3382 state_reg[3]
*3383 _3832_
*3384 _1910_
*3385 _2339_
*3386 _2264_
*3387 state_reg[68]
*3388 _3897_
*3389 _2924_
*3390 _1912_
*3391 _2849_
*3392 state_reg[100]
*3393 _3929_
*3394 _3211_
*3395 _1912_
*3396 _3136_
*3397 state_reg[36]
*3398 _3865_
*3399 _1913_
*3400 _2636_
*3401 _2561_
*3402 state_reg[4]
*3403 _3833_
*3404 _2348_
*3405 _2273_
*3406 _1913_
*3407 state_reg[69]
*3408 _3898_
*3409 _2858_
*3410 _1915_
*3411 _2933_
*3412 state_reg[101]
*3413 _3930_
*3414 _3145_
*3415 _3220_
*3416 _1915_
*3417 state_reg[37]
*3418 _3866_
*3419 _2645_
*3420 _1916_
*3421 _2570_
*3422 state_reg[5]
*3423 _3834_
*3424 _2357_
*3425 _1916_
*3426 _2282_
*3427 state_reg[70]
*3428 _3899_
*3429 _2942_
*3430 _1918_
*3431 _2867_
*3432 state_reg[102]
*3433 _3931_
*3434 _3154_
*3435 _3229_
*3436 _1918_
*3437 state_reg[38]
*3438 _3867_
*3439 _2654_
*3440 _1919_
*3441 _2579_
*3442 state_reg[6]
*3443 _3835_
*3444 _2366_
*3445 _2291_
*3446 _1919_
*3447 state_reg[71]
*3448 _3900_
*3449 _1921_
*3450 _2876_
*3451 _2951_
*3452 state_reg[103]
*3453 _3932_
*3454 _3238_
*3455 _1921_
*3456 _3163_
*3457 state_reg[39]
*3458 _3868_
*3459 _2588_
*3460 _1922_
*3461 _2663_
*3462 state_reg[7]
*3463 _3836_
*3464 _2375_
*3465 _2300_
*3466 _1922_
*3467 state_reg[72]
*3468 _3901_
*3469 _2960_
*3470 _1924_
*3471 _2885_
*3472 state_reg[104]
*3473 _3933_
*3474 _3172_
*3475 _3247_
*3476 _1924_
*3477 state_reg[40]
*3478 _3869_
*3479 _2597_
*3480 _1925_
*3481 _2672_
*3482 state_reg[8]
*3483 _3837_
*3484 _2384_
*3485 _1925_
*3486 _2309_
*3487 state_reg[73]
*3488 _3902_
*3489 _2894_
*3490 _1927_
*3491 _2969_
*3492 state_reg[105]
*3493 _3934_
*3494 _3181_
*3495 _3256_
*3496 _1927_
*3497 state_reg[41]
*3498 _3870_
*3499 _2681_
*3500 _1928_
*3501 _2606_
*3502 state_reg[9]
*3503 _3838_
*3504 _2393_
*3505 _1928_
*3506 _2318_
*3507 state_reg[74]
*3508 _3903_
*3509 _2903_
*3510 _1930_
*3511 _2978_
*3512 state_reg[106]
*3513 _3935_
*3514 _3190_
*3515 _1930_
*3516 _3265_
*3517 state_reg[42]
*3518 _3871_
*3519 _2615_
*3520 _1931_
*3521 _2690_
*3522 state_reg[10]
*3523 _3839_
*3524 _2402_
*3525 _1931_
*3526 _2327_
*3527 state_reg[75]
*3528 _3904_
*3529 _2987_
*3530 _1933_
*3531 _2912_
*3532 state_reg[107]
*3533 _3936_
*3534 _3274_
*3535 _3199_
*3536 _1933_
*3537 state_reg[43]
*3538 _3872_
*3539 _2699_
*3540 _2624_
*3541 _1934_
*3542 state_reg[11]
*3543 _3840_
*3544 _2336_
*3545 _2411_
*3546 _1934_
*3547 state_reg[76]
*3548 _3905_
*3549 _2996_
*3550 _1936_
*3551 _2921_
*3552 state_reg[108]
*3553 _3937_
*3554 _3283_
*3555 _1936_
*3556 _3208_
*3557 state_reg[44]
*3558 _3873_
*3559 _1937_
*3560 _2633_
*3561 _2708_
*3562 state_reg[12]
*3563 _3841_
*3564 _2420_
*3565 _2345_
*3566 _1937_
*3567 state_reg[77]
*3568 _3906_
*3569 _2930_
*3570 _1939_
*3571 _3005_
*3572 state_reg[109]
*3573 _3938_
*3574 _3292_
*3575 _1939_
*3576 _3217_
*3577 state_reg[45]
*3578 _3874_
*3579 _2642_
*3580 _2717_
*3581 _1940_
*3582 state_reg[13]
*3583 _3842_
*3584 _1940_
*3585 _2354_
*3586 _2429_
*3587 state_reg[78]
*3588 _3907_
*3589 _3014_
*3590 _1942_
*3591 _2939_
*3592 state_reg[110]
*3593 _3939_
*3594 _3301_
*3595 _1942_
*3596 _3226_
*3597 state_reg[46]
*3598 _3875_
*3599 _2726_
*3600 _1943_
*3601 _2651_
*3602 state_reg[14]
*3603 _3843_
*3604 _2438_
*3605 _1943_
*3606 _2363_
*3607 state_reg[79]
*3608 _3908_
*3609 _2948_
*3610 _3023_
*3611 _1945_
*3612 state_reg[111]
*3613 _3940_
*3614 _3235_
*3615 _3310_
*3616 _1945_
*3617 state_reg[47]
*3618 _3876_
*3619 _2660_
*3620 _1946_
*3621 _2735_
*3622 state_reg[15]
*3623 _3844_
*3624 _2447_
*3625 _1946_
*3626 _2372_
*3627 state_reg[80]
*3628 _3909_
*3629 _2957_
*3630 _3032_
*3631 _1948_
*3632 state_reg[112]
*3633 _3941_
*3634 _3244_
*3635 _3319_
*3636 _1948_
*3637 state_reg[48]
*3638 _3877_
*3639 _2744_
*3640 _1949_
*3641 _2669_
*3642 state_reg[16]
*3643 _3845_
*3644 _2381_
*3645 _2456_
*3646 _1949_
*3647 state_reg[81]
*3648 _3910_
*3649 _1951_
*3650 _2966_
*3651 _3041_
*3652 state_reg[113]
*3653 _3942_
*3654 _3328_
*3655 _1951_
*3656 _3253_
*3657 state_reg[49]
*3658 _3878_
*3659 _2678_
*3660 _2753_
*3661 _1952_
*3662 state_reg[17]
*3663 _3846_
*3664 _2465_
*3665 _1952_
*3666 _2390_
*3667 state_reg[82]
*3668 _3911_
*3669 _1954_
*3670 _3050_
*3671 _2975_
*3672 state_reg[114]
*3673 _3943_
*3674 _3262_
*3675 _1954_
*3676 _3337_
*3677 state_reg[50]
*3678 _3879_
*3679 _2762_
*3680 _2687_
*3681 _1955_
*3682 state_reg[18]
*3683 _3847_
*3684 _2399_
*3685 _2474_
*3686 _1955_
*3687 state_reg[83]
*3688 _3912_
*3689 _2984_
*3690 _1957_
*3691 _3059_
*3692 state_reg[115]
*3693 _3944_
*3694 _3271_
*3695 _3346_
*3696 _1957_
*3697 state_reg[51]
*3698 _3880_
*3699 _2696_
*3700 _2771_
*3701 _1958_
*3702 state_reg[19]
*3703 _3848_
*3704 _2408_
*3705 _2483_
*3706 _1958_
*3707 state_reg[84]
*3708 _3913_
*3709 _3068_
*3710 _1960_
*3711 _2993_
*3712 state_reg[116]
*3713 _3945_
*3714 _1960_
*3715 _3355_
*3716 _3280_
*3717 state_reg[52]
*3718 _3881_
*3719 _1961_
*3720 _2705_
*3721 _2780_
*3722 state_reg[20]
*3723 _3849_
*3724 _2417_
*3725 _1961_
*3726 _2492_
*3727 state_reg[85]
*3728 _3914_
*3729 _3002_
*3730 _3077_
*3731 _1963_
*3732 state_reg[117]
*3733 _3946_
*3734 _1963_
*3735 _3289_
*3736 _3364_
*3737 state_reg[53]
*3738 _3882_
*3739 _2714_
*3740 _2789_
*3741 _1964_
*3742 state_reg[21]
*3743 _3850_
*3744 _2426_
*3745 _2501_
*3746 _1964_
*3747 state_reg[86]
*3748 _3915_
*3749 _1966_
*3750 _3086_
*3751 _3011_
*3752 state_reg[118]
*3753 _3947_
*3754 _1966_
*3755 _3298_
*3756 _3373_
*3757 state_reg[54]
*3758 _3883_
*3759 _2723_
*3760 _1967_
*3761 _2798_
*3762 state_reg[22]
*3763 _3851_
*3764 _1967_
*3765 _2510_
*3766 _2435_
*3767 state_reg[87]
*3768 _3916_
*3769 _1969_
*3770 _3020_
*3771 _3095_
*3772 state_reg[119]
*3773 _3948_
*3774 _3307_
*3775 _3382_
*3776 _1969_
*3777 state_reg[55]
*3778 _3884_
*3779 _2807_
*3780 _2732_
*3781 _1970_
*3782 state_reg[23]
*3783 _3852_
*3784 _2444_
*3785 _2519_
*3786 _1970_
*3787 state_reg[88]
*3788 _3917_
*3789 _3029_
*3790 _3104_
*3791 _1972_
*3792 state_reg[120]
*3793 _3949_
*3794 _3316_
*3795 _2240_
*3796 _1972_
*3797 state_reg[56]
*3798 _3885_
*3799 _2741_
*3800 _1973_
*3801 _2816_
*3802 state_reg[24]
*3803 _3853_
*3804 _2453_
*3805 _1973_
*3806 _2528_
*3807 state_reg[89]
*3808 _3918_
*3809 _3038_
*3810 _3112_
*3811 _1975_
*3812 state_reg[121]
*3813 _3950_
*3814 _2249_
*3815 _1975_
*3816 _3325_
*3817 state_reg[57]
*3818 _3886_
*3819 _2750_
*3820 _2825_
*3821 _1976_
*3822 state_reg[25]
*3823 _3854_
*3824 _2537_
*3825 _1976_
*3826 _2462_
*3827 state_reg[90]
*3828 _3919_
*3829 _1978_
*3830 _3121_
*3831 _3047_
*3832 state_reg[122]
*3833 _3951_
*3834 _1978_
*3835 _3334_
*3836 _2258_
*3837 state_reg[58]
*3838 _3887_
*3839 _1979_
*3840 _2834_
*3841 _2759_
*3842 state_reg[26]
*3843 _3855_
*3844 _2471_
*3845 _2546_
*3846 _1979_
*3847 state_reg[91]
*3848 _3920_
*3849 _3056_
*3850 _3130_
*3851 _1981_
*3852 state_reg[123]
*3853 _3952_
*3854 _3343_
*3855 _2267_
*3856 _1981_
*3857 state_reg[59]
*3858 _3888_
*3859 _2768_
*3860 _2843_
*3861 _1982_
*3862 state_reg[27]
*3863 _3856_
*3864 _1982_
*3865 _2480_
*3866 _2555_
*3867 state_reg[92]
*3868 _3921_
*3869 _1984_
*3870 _3065_
*3871 _3139_
*3872 state_reg[124]
*3873 _3953_
*3874 _3352_
*3875 _2276_
*3876 _1984_
*3877 state_reg[60]
*3878 _3889_
*3879 _2852_
*3880 _2777_
*3881 _1985_
*3882 state_reg[28]
*3883 _3857_
*3884 _1985_
*3885 _2489_
*3886 _2564_
*3887 state_reg[93]
*3888 _3922_
*3889 _3148_
*3890 _1987_
*3891 _3074_
*3892 state_reg[125]
*3893 _3954_
*3894 _3361_
*3895 _2285_
*3896 _1987_
*3897 state_reg[61]
*3898 _3890_
*3899 _2786_
*3900 _1988_
*3901 _2861_
*3902 state_reg[29]
*3903 _3858_
*3904 _1988_
*3905 _2573_
*3906 _2498_
*3907 state_reg[94]
*3908 _3923_
*3909 _1990_
*3910 _3083_
*3911 _3157_
*3912 state_reg[126]
*3913 _3955_
*3914 _3370_
*3915 _2294_
*3916 _1990_
*3917 state_reg[62]
*3918 _3891_
*3919 _2870_
*3920 _1991_
*3921 _2795_
*3922 state_reg[30]
*3923 _3859_
*3924 _2507_
*3925 _2582_
*3926 _1991_
*3927 state_reg[95]
*3928 _3924_
*3929 _3092_
*3930 _3166_
*3931 _1993_
*3932 state_reg[127]
*3933 _3956_
*3934 _3379_
*3935 _1993_
*3936 _2303_
*3937 state_reg[63]
*3938 _3892_
*3939 _1994_
*3940 _2804_
*3941 _2879_
*3942 state_reg[31]
*3943 _3860_
*3944 _2591_
*3945 _1994_
*3946 _2516_
*3947 _535_
*3948 _2235_
*3949 _2236_
*3950 _2239_
*3951 _3404_
*3952 start_pulse
*3953 _3995_
*3954 _2239_
*3955 _1851_
*3956 round_cnt[1]
*3957 _3959_
*3958 _1852_
*3959 _3392_
*3960 round_cnt[0]
*3961 _3958_
*3962 _3388_
*3963 _1853_
*3964 _1742_
*3965 _1853_
*3966 _1856_
*3967 _3393_
*3968 _1743_
*3969 _1854_
*3970 _3402_
*3971 _1855_
*3972 _1745_
*3973 _1856_
*3974 _1857_
*3975 _3404_
*3976 psel
*3977 _1859_
*3978 _1998_
*3979 pwrite
*3980 _1860_
*3981 _1998_
*3982 state_reg[0]
*3983 _3829_
*3984 _2312_
*3985 _1861_
*3986 _1749_
*3987 _1861_
*3988 _1873_
*3989 _2245_
*3990 _1751_
*3991 _1863_
*3992 _2004_
*3993 _1864_
*3994 paddr[7]
*3995 _1878_
*3996 _1866_
*3997 paddr[6]
*3998 _1866_
*3999 _1878_
*4000 _1755_
*4001 _1867_
*4002 _1873_
*4003 _1904_
*4004 _1756_
*4005 _1868_
*4006 _1876_
*4007 _1871_
*4008 _1757_
*4009 _1869_
*4010 _1900_
*4011 _1870_
*4012 _1759_
*4013 _1871_
*4014 _1872_
*4015 _1890_
*4016 _1762_
*4017 _1874_
*4018 _1905_
*4019 _1875_
*4020 _1764_
*4021 _1876_
*4022 _1877_
*4023 _1894_
*4024 state_reg[97]
*4025 _3926_
*4026 _1888_
*4027 _3184_
*4028 _1775_
*4029 _1888_
*4030 _3117_
*4031 _1891_
*4032 _1776_
*4033 _1889_
*4034 _1891_
*4035 _1902_
*4036 done
*4037 _3962_
*4038 _3403_
*4039 _1892_
*4040 _1785_
*4041 _1899_
*4042 _1906_
*4043 _1901_
*4044 _1786_
*4045 _1900_
*4046 _3405_
*4047 _1901_
*4048 _1791_
*4049 _1905_
*4050 _2102_
*4051 _1906_
*4052 pwdata[0]
*4053 _3604_
*4054 _1997_
*4055 _397_
*4056 _2001_
*4057 _2002_
*4058 _2168_
*4059 _401_
*4060 _2005_
*4061 _2170_
*4062 _2006_
*4063 key_reg[0]
*4064 _3733_
*4065 _2007_
*4066 _2237_
*4067 pwdata[1]
*4068 _3606_
*4069 _2009_
*4070 key_reg[1]
*4071 _3734_
*4072 _2010_
*4073 _2247_
*4074 pwdata[2]
*4075 _3608_
*4076 _2012_
*4077 key_reg[2]
*4078 _3735_
*4079 _2013_
*4080 _2256_
*4081 pwdata[3]
*4082 _3610_
*4083 _2015_
*4084 key_reg[3]
*4085 _3736_
*4086 _2265_
*4087 _2016_
*4088 pwdata[4]
*4089 _3612_
*4090 _2018_
*4091 key_reg[4]
*4092 _3737_
*4093 _2274_
*4094 _2019_
*4095 pwdata[5]
*4096 _3614_
*4097 _2021_
*4098 key_reg[5]
*4099 _3738_
*4100 _2283_
*4101 _2022_
*4102 pwdata[6]
*4103 _3616_
*4104 _2024_
*4105 key_reg[6]
*4106 _3739_
*4107 _2025_
*4108 _2292_
*4109 pwdata[7]
*4110 _3618_
*4111 _2027_
*4112 key_reg[7]
*4113 _3740_
*4114 _2028_
*4115 _2301_
*4116 pwdata[8]
*4117 _3620_
*4118 _2030_
*4119 key_reg[8]
*4120 _3741_
*4121 _2310_
*4122 _2031_
*4123 pwdata[9]
*4124 _3622_
*4125 _2033_
*4126 key_reg[9]
*4127 _3742_
*4128 _2034_
*4129 _2319_
*4130 pwdata[10]
*4131 _2036_
*4132 _3624_
*4133 key_reg[10]
*4134 _3743_
*4135 _2328_
*4136 _2037_
*4137 pwdata[11]
*4138 _2039_
*4139 _3626_
*4140 key_reg[11]
*4141 _3744_
*4142 _2040_
*4143 _2337_
*4144 pwdata[12]
*4145 _3628_
*4146 _2042_
*4147 key_reg[12]
*4148 _3745_
*4149 _2043_
*4150 _2346_
*4151 pwdata[13]
*4152 _2045_
*4153 _3630_
*4154 key_reg[13]
*4155 _3746_
*4156 _2355_
*4157 _2046_
*4158 pwdata[14]
*4159 _3632_
*4160 _2048_
*4161 key_reg[14]
*4162 _3747_
*4163 _2364_
*4164 _2049_
*4165 pwdata[15]
*4166 _2051_
*4167 _3634_
*4168 key_reg[15]
*4169 _3748_
*4170 _2373_
*4171 _2052_
*4172 pwdata[16]
*4173 _3636_
*4174 _2054_
*4175 key_reg[16]
*4176 _3749_
*4177 _2055_
*4178 _2382_
*4179 pwdata[17]
*4180 _3638_
*4181 _2057_
*4182 key_reg[17]
*4183 _3750_
*4184 _2058_
*4185 _2391_
*4186 pwdata[18]
*4187 _3640_
*4188 _2060_
*4189 key_reg[18]
*4190 _3751_
*4191 _2400_
*4192 _2061_
*4193 pwdata[19]
*4194 _3642_
*4195 _2063_
*4196 key_reg[19]
*4197 _3752_
*4198 _2064_
*4199 _2409_
*4200 pwdata[20]
*4201 _3644_
*4202 _2066_
*4203 key_reg[20]
*4204 _3753_
*4205 _2067_
*4206 _2418_
*4207 pwdata[21]
*4208 _3646_
*4209 _2069_
*4210 key_reg[21]
*4211 _3754_
*4212 _2427_
*4213 _2070_
*4214 pwdata[22]
*4215 _3648_
*4216 _2072_
*4217 key_reg[22]
*4218 _3755_
*4219 _2073_
*4220 _2436_
*4221 pwdata[23]
*4222 _3650_
*4223 _2075_
*4224 key_reg[23]
*4225 _3756_
*4226 _2076_
*4227 _2445_
*4228 pwdata[24]
*4229 _3652_
*4230 _2078_
*4231 key_reg[24]
*4232 _3757_
*4233 _2079_
*4234 _2454_
*4235 pwdata[25]
*4236 _3654_
*4237 _2081_
*4238 key_reg[25]
*4239 _3758_
*4240 _2082_
*4241 _2463_
*4242 pwdata[26]
*4243 _3656_
*4244 _2084_
*4245 key_reg[26]
*4246 _3759_
*4247 _2472_
*4248 _2085_
*4249 pwdata[27]
*4250 _2087_
*4251 _3658_
*4252 key_reg[27]
*4253 _3760_
*4254 _2481_
*4255 _2088_
*4256 pwdata[28]
*4257 _2090_
*4258 _3660_
*4259 key_reg[28]
*4260 _3761_
*4261 _2490_
*4262 _2091_
*4263 pwdata[29]
*4264 _3662_
*4265 _2093_
*4266 key_reg[29]
*4267 _3762_
*4268 _2094_
*4269 _2499_
*4270 pwdata[30]
*4271 _3664_
*4272 _2096_
*4273 key_reg[30]
*4274 _3763_
*4275 _2097_
*4276 _2508_
*4277 pwdata[31]
*4278 _3666_
*4279 _2099_
*4280 key_reg[31]
*4281 _3764_
*4282 _2100_
*4283 _2517_
*4284 _466_
*4285 _2102_
*4286 _3471_
*4287 _2103_
*4288 key_reg[32]
*4289 _3765_
*4290 _2104_
*4291 _2526_
*4292 key_reg[33]
*4293 _3766_
*4294 _2535_
*4295 _2106_
*4296 key_reg[34]
*4297 _3767_
*4298 _2108_
*4299 _2544_
*4300 key_reg[35]
*4301 _3768_
*4302 _2553_
*4303 _2110_
*4304 key_reg[36]
*4305 _3769_
*4306 _2112_
*4307 _2562_
*4308 key_reg[37]
*4309 _3770_
*4310 _2571_
*4311 _2114_
*4312 key_reg[38]
*4313 _3771_
*4314 _2116_
*4315 _2580_
*4316 key_reg[39]
*4317 _3772_
*4318 _2589_
*4319 _2118_
*4320 key_reg[40]
*4321 _3773_
*4322 _2120_
*4323 _2598_
*4324 key_reg[41]
*4325 _3774_
*4326 _2122_
*4327 _2607_
*4328 key_reg[42]
*4329 _3775_
*4330 _2124_
*4331 _2616_
*4332 key_reg[43]
*4333 _3776_
*4334 _2126_
*4335 _2625_
*4336 key_reg[44]
*4337 _3777_
*4338 _2634_
*4339 _2128_
*4340 key_reg[45]
*4341 _3778_
*4342 _2643_
*4343 _2130_
*4344 key_reg[46]
*4345 _3779_
*4346 _2132_
*4347 _2652_
*4348 key_reg[47]
*4349 _3780_
*4350 _2134_
*4351 _2661_
*4352 key_reg[48]
*4353 _3781_
*4354 _2136_
*4355 _2670_
*4356 key_reg[49]
*4357 _3782_
*4358 _2679_
*4359 _2138_
*4360 key_reg[50]
*4361 _3783_
*4362 _2140_
*4363 _2688_
*4364 key_reg[51]
*4365 _3784_
*4366 _2697_
*4367 _2142_
*4368 key_reg[52]
*4369 _3785_
*4370 _2144_
*4371 _2706_
*4372 key_reg[53]
*4373 _3786_
*4374 _2715_
*4375 _2146_
*4376 key_reg[54]
*4377 _3787_
*4378 _2148_
*4379 _2724_
*4380 key_reg[55]
*4381 _3788_
*4382 _2150_
*4383 _2733_
*4384 key_reg[56]
*4385 _3789_
*4386 _2152_
*4387 _2742_
*4388 key_reg[57]
*4389 _3790_
*4390 _2154_
*4391 _2751_
*4392 key_reg[58]
*4393 _3791_
*4394 _2156_
*4395 _2760_
*4396 key_reg[59]
*4397 _3792_
*4398 _2769_
*4399 _2158_
*4400 key_reg[60]
*4401 _3793_
*4402 _2778_
*4403 _2160_
*4404 key_reg[61]
*4405 _3794_
*4406 _2787_
*4407 _2162_
*4408 key_reg[62]
*4409 _3795_
*4410 _2164_
*4411 _2796_
*4412 key_reg[63]
*4413 _3796_
*4414 _2805_
*4415 _2166_
*4416 data_in_reg[0]
*4417 _3797_
*4418 _2171_
*4419 _2238_
*4420 data_in_reg[1]
*4421 _3798_
*4422 _2173_
*4423 _2248_
*4424 data_in_reg[2]
*4425 _3799_
*4426 _2175_
*4427 _2257_
*4428 data_in_reg[3]
*4429 _3800_
*4430 _2177_
*4431 _2266_
*4432 data_in_reg[4]
*4433 _3801_
*4434 _2179_
*4435 _2275_
*4436 data_in_reg[5]
*4437 _3802_
*4438 _2181_
*4439 _2284_
*4440 data_in_reg[6]
*4441 _3803_
*4442 _2293_
*4443 _2183_
*4444 data_in_reg[7]
*4445 _3804_
*4446 _2185_
*4447 _2302_
*4448 data_in_reg[8]
*4449 _3805_
*4450 _2187_
*4451 _2311_
*4452 data_in_reg[9]
*4453 _3806_
*4454 _2189_
*4455 _2320_
*4456 data_in_reg[10]
*4457 _3807_
*4458 _2329_
*4459 _2191_
*4460 data_in_reg[11]
*4461 _3808_
*4462 _2338_
*4463 _2193_
*4464 data_in_reg[12]
*4465 _3809_
*4466 _2347_
*4467 _2195_
*4468 data_in_reg[13]
*4469 _3810_
*4470 _2356_
*4471 _2197_
*4472 data_in_reg[14]
*4473 _3811_
*4474 _2365_
*4475 _2199_
*4476 data_in_reg[15]
*4477 _3812_
*4478 _2201_
*4479 _2374_
*4480 data_in_reg[16]
*4481 _3813_
*4482 _2203_
*4483 _2383_
*4484 data_in_reg[17]
*4485 _3814_
*4486 _2392_
*4487 _2205_
*4488 data_in_reg[18]
*4489 _3815_
*4490 _2401_
*4491 _2207_
*4492 data_in_reg[19]
*4493 _3816_
*4494 _2410_
*4495 _2209_
*4496 data_in_reg[20]
*4497 _3817_
*4498 _2419_
*4499 _2211_
*4500 data_in_reg[21]
*4501 _3818_
*4502 _2213_
*4503 _2428_
*4504 data_in_reg[22]
*4505 _3819_
*4506 _2215_
*4507 _2437_
*4508 data_in_reg[23]
*4509 _3820_
*4510 _2446_
*4511 _2217_
*4512 data_in_reg[24]
*4513 _3821_
*4514 _2455_
*4515 _2219_
*4516 data_in_reg[25]
*4517 _3822_
*4518 _2221_
*4519 _2464_
*4520 data_in_reg[26]
*4521 _3823_
*4522 _2473_
*4523 _2223_
*4524 data_in_reg[27]
*4525 _3824_
*4526 _2482_
*4527 _2225_
*4528 data_in_reg[28]
*4529 _3825_
*4530 _2227_
*4531 _2491_
*4532 data_in_reg[29]
*4533 _3826_
*4534 _2500_
*4535 _2229_
*4536 data_in_reg[30]
*4537 _3827_
*4538 _2231_
*4539 _2509_
*4540 data_in_reg[31]
*4541 _3828_
*4542 _2518_
*4543 _2233_
*4544 _537_
*4545 _2237_
*4546 _2243_
*4547 _2242_
*4548 _541_
*4549 _2241_
*4550 _2242_
*4551 _2243_
*4552 _546_
*4553 _2247_
*4554 _2251_
*4555 _2252_
*4556 _549_
*4557 _2250_
*4558 _2252_
*4559 _2251_
*4560 _554_
*4561 _2256_
*4562 _2260_
*4563 _2261_
*4564 _557_
*4565 _2259_
*4566 _2261_
*4567 _2260_
*4568 _562_
*4569 _2265_
*4570 _2269_
*4571 _2270_
*4572 _565_
*4573 _2268_
*4574 _2270_
*4575 _2269_
*4576 _570_
*4577 _2274_
*4578 _2279_
*4579 _2278_
*4580 _573_
*4581 _2277_
*4582 _2278_
*4583 _2279_
*4584 _578_
*4585 _2283_
*4586 _2287_
*4587 _2288_
*4588 _581_
*4589 _2286_
*4590 _2288_
*4591 _2287_
*4592 _586_
*4593 _2292_
*4594 _2297_
*4595 _2296_
*4596 _589_
*4597 _2295_
*4598 _2296_
*4599 _2297_
*4600 _594_
*4601 _2301_
*4602 _2305_
*4603 _2306_
*4604 _597_
*4605 _2304_
*4606 _2306_
*4607 _2305_
*4608 _602_
*4609 _2310_
*4610 _2314_
*4611 _2315_
*4612 _605_
*4613 _2313_
*4614 _2315_
*4615 _2314_
*4616 _610_
*4617 _2319_
*4618 _2323_
*4619 _2324_
*4620 _613_
*4621 _2322_
*4622 _2324_
*4623 _2323_
*4624 _618_
*4625 _2328_
*4626 _2333_
*4627 _2332_
*4628 _621_
*4629 _2331_
*4630 _2332_
*4631 _2333_
*4632 _626_
*4633 _2337_
*4634 _2341_
*4635 _2342_
*4636 _629_
*4637 _2340_
*4638 _2342_
*4639 _2341_
*4640 _634_
*4641 _2346_
*4642 _2350_
*4643 _2351_
*4644 _637_
*4645 _2349_
*4646 _2350_
*4647 _2351_
*4648 _642_
*4649 _2355_
*4650 _2359_
*4651 _2360_
*4652 _645_
*4653 _2358_
*4654 _2360_
*4655 _2359_
*4656 _650_
*4657 _2364_
*4658 _2369_
*4659 _2368_
*4660 _653_
*4661 _2367_
*4662 _2369_
*4663 _2368_
*4664 _658_
*4665 _2373_
*4666 _2377_
*4667 _2378_
*4668 _661_
*4669 _2376_
*4670 _2377_
*4671 _2378_
*4672 _666_
*4673 _2382_
*4674 _2386_
*4675 _2387_
*4676 _669_
*4677 _2385_
*4678 _2387_
*4679 _2386_
*4680 _674_
*4681 _2391_
*4682 _2396_
*4683 _2395_
*4684 _677_
*4685 _2394_
*4686 _2395_
*4687 _2396_
*4688 _682_
*4689 _2400_
*4690 _2404_
*4691 _2405_
*4692 _685_
*4693 _2403_
*4694 _2404_
*4695 _2405_
*4696 _690_
*4697 _2409_
*4698 _2413_
*4699 _2414_
*4700 _693_
*4701 _2412_
*4702 _2414_
*4703 _2413_
*4704 _698_
*4705 _2418_
*4706 _2422_
*4707 _2423_
*4708 _701_
*4709 _2421_
*4710 _2422_
*4711 _2423_
*4712 _706_
*4713 _2427_
*4714 _2431_
*4715 _2432_
*4716 _709_
*4717 _2430_
*4718 _2432_
*4719 _2431_
*4720 _714_
*4721 _2436_
*4722 _2440_
*4723 _2441_
*4724 _717_
*4725 _2439_
*4726 _2441_
*4727 _2440_
*4728 _722_
*4729 _2445_
*4730 _2450_
*4731 _2449_
*4732 _725_
*4733 _2448_
*4734 _2450_
*4735 _2449_
*4736 _730_
*4737 _2454_
*4738 _2459_
*4739 _2458_
*4740 _733_
*4741 _2457_
*4742 _2459_
*4743 _2458_
*4744 _738_
*4745 _2463_
*4746 _2467_
*4747 _2468_
*4748 _741_
*4749 _2466_
*4750 _2468_
*4751 _2467_
*4752 _746_
*4753 _2472_
*4754 _2477_
*4755 _2476_
*4756 _749_
*4757 _2475_
*4758 _2477_
*4759 _2476_
*4760 _754_
*4761 _2481_
*4762 _2485_
*4763 _2486_
*4764 _757_
*4765 _2484_
*4766 _2486_
*4767 _2485_
*4768 _762_
*4769 _2490_
*4770 _2494_
*4771 _2495_
*4772 _765_
*4773 _2493_
*4774 _2495_
*4775 _2494_
*4776 _770_
*4777 _2499_
*4778 _2504_
*4779 _2503_
*4780 _773_
*4781 _2502_
*4782 _2504_
*4783 _2503_
*4784 _778_
*4785 _2508_
*4786 _2513_
*4787 _2512_
*4788 _781_
*4789 _2511_
*4790 _2513_
*4791 _2512_
*4792 _786_
*4793 _2517_
*4794 _2522_
*4795 _2521_
*4796 _789_
*4797 _2520_
*4798 _2522_
*4799 _2521_
*4800 _794_
*4801 _2526_
*4802 _2531_
*4803 _2530_
*4804 data_in_reg[32]
*4805 _3996_
*4806 _3472_
*4807 _2527_
*4808 _797_
*4809 _2529_
*4810 _2530_
*4811 _2531_
*4812 _802_
*4813 _2535_
*4814 _2540_
*4815 _2539_
*4816 data_in_reg[33]
*4817 _3997_
*4818 _3474_
*4819 _2536_
*4820 _805_
*4821 _2538_
*4822 _2540_
*4823 _2539_
*4824 _810_
*4825 _2544_
*4826 _2549_
*4827 _2548_
*4828 data_in_reg[34]
*4829 _3998_
*4830 _3476_
*4831 _2545_
*4832 _813_
*4833 _2547_
*4834 _2549_
*4835 _2548_
*4836 _818_
*4837 _2553_
*4838 _2558_
*4839 _2557_
*4840 data_in_reg[35]
*4841 _3999_
*4842 _3478_
*4843 _2554_
*4844 _821_
*4845 _2556_
*4846 _2558_
*4847 _2557_
*4848 _826_
*4849 _2562_
*4850 _2566_
*4851 _2567_
*4852 data_in_reg[36]
*4853 _4000_
*4854 _3480_
*4855 _2563_
*4856 _829_
*4857 _2565_
*4858 _2566_
*4859 _2567_
*4860 _834_
*4861 _2571_
*4862 _2575_
*4863 _2576_
*4864 data_in_reg[37]
*4865 _4001_
*4866 _2572_
*4867 _3482_
*4868 _837_
*4869 _2574_
*4870 _2576_
*4871 _2575_
*4872 _842_
*4873 _2580_
*4874 _2585_
*4875 _2584_
*4876 data_in_reg[38]
*4877 _4002_
*4878 _3484_
*4879 _2581_
*4880 _845_
*4881 _2583_
*4882 _2585_
*4883 _2584_
*4884 _850_
*4885 _2589_
*4886 _2593_
*4887 _2594_
*4888 data_in_reg[39]
*4889 _4003_
*4890 _3486_
*4891 _2590_
*4892 _853_
*4893 _2592_
*4894 _2594_
*4895 _2593_
*4896 _858_
*4897 _2598_
*4898 _2603_
*4899 _2602_
*4900 data_in_reg[40]
*4901 _4004_
*4902 _3488_
*4903 _2599_
*4904 _861_
*4905 _2601_
*4906 _2603_
*4907 _2602_
*4908 _866_
*4909 _2607_
*4910 _2612_
*4911 _2611_
*4912 data_in_reg[41]
*4913 _4005_
*4914 _3490_
*4915 _2608_
*4916 _869_
*4917 _2610_
*4918 _2612_
*4919 _2611_
*4920 _874_
*4921 _2616_
*4922 _2621_
*4923 _2620_
*4924 data_in_reg[42]
*4925 _4006_
*4926 _3492_
*4927 _2617_
*4928 _877_
*4929 _2619_
*4930 _2620_
*4931 _2621_
*4932 _882_
*4933 _2625_
*4934 _2629_
*4935 _2630_
*4936 data_in_reg[43]
*4937 _4007_
*4938 _3494_
*4939 _2626_
*4940 _885_
*4941 _2628_
*4942 _2629_
*4943 _2630_
*4944 _890_
*4945 _2634_
*4946 _2639_
*4947 _2638_
*4948 data_in_reg[44]
*4949 _4008_
*4950 _3496_
*4951 _2635_
*4952 _893_
*4953 _2637_
*4954 _2638_
*4955 _2639_
*4956 _898_
*4957 _2643_
*4958 _2648_
*4959 _2647_
*4960 data_in_reg[45]
*4961 _4009_
*4962 _3498_
*4963 _2644_
*4964 _901_
*4965 _2646_
*4966 _2648_
*4967 _2647_
*4968 _906_
*4969 _2652_
*4970 _2656_
*4971 _2657_
*4972 data_in_reg[46]
*4973 _4010_
*4974 _3500_
*4975 _2653_
*4976 _909_
*4977 _2655_
*4978 _2657_
*4979 _2656_
*4980 _914_
*4981 _2661_
*4982 _2666_
*4983 _2665_
*4984 data_in_reg[47]
*4985 _4011_
*4986 _2662_
*4987 _3502_
*4988 _917_
*4989 _2664_
*4990 _2666_
*4991 _2665_
*4992 _922_
*4993 _2670_
*4994 _2674_
*4995 _2675_
*4996 data_in_reg[48]
*4997 _4012_
*4998 _3504_
*4999 _2671_
*5000 _925_
*5001 _2673_
*5002 _2675_
*5003 _2674_
*5004 _930_
*5005 _2679_
*5006 _2684_
*5007 _2683_
*5008 data_in_reg[49]
*5009 _4013_
*5010 _3506_
*5011 _2680_
*5012 _933_
*5013 _2682_
*5014 _2684_
*5015 _2683_
*5016 _938_
*5017 _2688_
*5018 _2693_
*5019 _2692_
*5020 data_in_reg[50]
*5021 _4014_
*5022 _3508_
*5023 _2689_
*5024 _941_
*5025 _2691_
*5026 _2692_
*5027 _2693_
*5028 _946_
*5029 _2697_
*5030 _2702_
*5031 _2701_
*5032 data_in_reg[51]
*5033 _4015_
*5034 _2698_
*5035 _3510_
*5036 _949_
*5037 _2700_
*5038 _2702_
*5039 _2701_
*5040 _954_
*5041 _2706_
*5042 _2710_
*5043 _2711_
*5044 data_in_reg[52]
*5045 _4016_
*5046 _3512_
*5047 _2707_
*5048 _957_
*5049 _2709_
*5050 _2711_
*5051 _2710_
*5052 _962_
*5053 _2715_
*5054 _2720_
*5055 _2719_
*5056 data_in_reg[53]
*5057 _4017_
*5058 _3514_
*5059 _2716_
*5060 _965_
*5061 _2718_
*5062 _2720_
*5063 _2719_
*5064 _970_
*5065 _2724_
*5066 _2729_
*5067 _2728_
*5068 data_in_reg[54]
*5069 _4018_
*5070 _2725_
*5071 _3516_
*5072 _973_
*5073 _2727_
*5074 _2729_
*5075 _2728_
*5076 _978_
*5077 _2733_
*5078 _2738_
*5079 _2737_
*5080 data_in_reg[55]
*5081 _4019_
*5082 _3518_
*5083 _2734_
*5084 _981_
*5085 _2736_
*5086 _2738_
*5087 _2737_
*5088 _986_
*5089 _2742_
*5090 _2747_
*5091 _2746_
*5092 data_in_reg[56]
*5093 _4020_
*5094 _3520_
*5095 _2743_
*5096 _989_
*5097 _2745_
*5098 _2747_
*5099 _2746_
*5100 _994_
*5101 _2751_
*5102 _2756_
*5103 _2755_
*5104 data_in_reg[57]
*5105 _4021_
*5106 _3522_
*5107 _2752_
*5108 _997_
*5109 _2754_
*5110 _2756_
*5111 _2755_
*5112 _1002_
*5113 _2760_
*5114 _2765_
*5115 _2764_
*5116 data_in_reg[58]
*5117 _4022_
*5118 _2761_
*5119 _3524_
*5120 _1005_
*5121 _2763_
*5122 _2764_
*5123 _2765_
*5124 _1010_
*5125 _2769_
*5126 _2774_
*5127 _2773_
*5128 data_in_reg[59]
*5129 _4023_
*5130 _3526_
*5131 _2770_
*5132 _1013_
*5133 _2772_
*5134 _2774_
*5135 _2773_
*5136 _1018_
*5137 _2778_
*5138 _2782_
*5139 _2783_
*5140 data_in_reg[60]
*5141 _4024_
*5142 _3528_
*5143 _2779_
*5144 _1021_
*5145 _2781_
*5146 _2783_
*5147 _2782_
*5148 _1026_
*5149 _2787_
*5150 _2792_
*5151 _2791_
*5152 data_in_reg[61]
*5153 _4025_
*5154 _3530_
*5155 _2788_
*5156 _1029_
*5157 _2790_
*5158 _2792_
*5159 _2791_
*5160 _1034_
*5161 _2796_
*5162 _2800_
*5163 _2801_
*5164 data_in_reg[62]
*5165 _4026_
*5166 _2797_
*5167 _3532_
*5168 _1037_
*5169 _2799_
*5170 _2800_
*5171 _2801_
*5172 _1042_
*5173 _2805_
*5174 _2810_
*5175 _2809_
*5176 data_in_reg[63]
*5177 _4027_
*5178 _2806_
*5179 _3534_
*5180 _1045_
*5181 _2808_
*5182 _2810_
*5183 _2809_
*5184 key_reg[64]
*5185 _3963_
*5186 _2814_
*5187 _3407_
*5188 _1050_
*5189 _2814_
*5190 _2819_
*5191 _2818_
*5192 data_in_reg[64]
*5193 _4028_
*5194 _2815_
*5195 _3537_
*5196 _1053_
*5197 _2817_
*5198 _2819_
*5199 _2818_
*5200 key_reg[65]
*5201 _3964_
*5202 _3409_
*5203 _2823_
*5204 _1058_
*5205 _2823_
*5206 _2828_
*5207 _2827_
*5208 data_in_reg[65]
*5209 _4029_
*5210 _3539_
*5211 _2824_
*5212 _1061_
*5213 _2826_
*5214 _2827_
*5215 _2828_
*5216 key_reg[66]
*5217 _3965_
*5218 _3411_
*5219 _2832_
*5220 _1066_
*5221 _2832_
*5222 _2836_
*5223 _2837_
*5224 data_in_reg[66]
*5225 _4030_
*5226 _2833_
*5227 _3541_
*5228 _1069_
*5229 _2835_
*5230 _2837_
*5231 _2836_
*5232 key_reg[67]
*5233 _3966_
*5234 _3413_
*5235 _2841_
*5236 _1074_
*5237 _2841_
*5238 _2845_
*5239 _2846_
*5240 data_in_reg[67]
*5241 _4031_
*5242 _3543_
*5243 _2842_
*5244 _1077_
*5245 _2844_
*5246 _2846_
*5247 _2845_
*5248 key_reg[68]
*5249 _3967_
*5250 _3415_
*5251 _2850_
*5252 _1082_
*5253 _2850_
*5254 _2855_
*5255 _2854_
*5256 data_in_reg[68]
*5257 _4032_
*5258 _3545_
*5259 _2851_
*5260 _1085_
*5261 _2853_
*5262 _2854_
*5263 _2855_
*5264 key_reg[69]
*5265 _3968_
*5266 _2859_
*5267 _3417_
*5268 _1090_
*5269 _2859_
*5270 _2864_
*5271 _2863_
*5272 data_in_reg[69]
*5273 _4033_
*5274 _3547_
*5275 _2860_
*5276 _1093_
*5277 _2862_
*5278 _2864_
*5279 _2863_
*5280 key_reg[70]
*5281 _3969_
*5282 _2868_
*5283 _3419_
*5284 _1098_
*5285 _2868_
*5286 _2872_
*5287 _2873_
*5288 data_in_reg[70]
*5289 _4034_
*5290 _3549_
*5291 _2869_
*5292 _1101_
*5293 _2871_
*5294 _2873_
*5295 _2872_
*5296 key_reg[71]
*5297 _3970_
*5298 _3421_
*5299 _2877_
*5300 _1106_
*5301 _2877_
*5302 _2881_
*5303 _2882_
*5304 data_in_reg[71]
*5305 _4035_
*5306 _3551_
*5307 _2878_
*5308 _1109_
*5309 _2880_
*5310 _2882_
*5311 _2881_
*5312 key_reg[72]
*5313 _3971_
*5314 _3423_
*5315 _2886_
*5316 _1114_
*5317 _2886_
*5318 _2891_
*5319 _2890_
*5320 data_in_reg[72]
*5321 _4036_
*5322 _2887_
*5323 _3553_
*5324 _1117_
*5325 _2889_
*5326 _2891_
*5327 _2890_
*5328 key_reg[73]
*5329 _3972_
*5330 _3425_
*5331 _2895_
*5332 _1122_
*5333 _2895_
*5334 _2899_
*5335 _2900_
*5336 data_in_reg[73]
*5337 _4037_
*5338 _3555_
*5339 _2896_
*5340 _1125_
*5341 _2898_
*5342 _2900_
*5343 _2899_
*5344 key_reg[74]
*5345 _3973_
*5346 _3427_
*5347 _2904_
*5348 _1130_
*5349 _2904_
*5350 _2909_
*5351 _2908_
*5352 data_in_reg[74]
*5353 _4038_
*5354 _2905_
*5355 _3557_
*5356 _1133_
*5357 _2907_
*5358 _2909_
*5359 _2908_
*5360 key_reg[75]
*5361 _3974_
*5362 _3429_
*5363 _2913_
*5364 _1138_
*5365 _2913_
*5366 _2917_
*5367 _2918_
*5368 data_in_reg[75]
*5369 _4039_
*5370 _2914_
*5371 _3559_
*5372 _1141_
*5373 _2916_
*5374 _2917_
*5375 _2918_
*5376 key_reg[76]
*5377 _3975_
*5378 _3431_
*5379 _2922_
*5380 _1146_
*5381 _2922_
*5382 _2926_
*5383 _2927_
*5384 data_in_reg[76]
*5385 _4040_
*5386 _3561_
*5387 _2923_
*5388 _1149_
*5389 _2925_
*5390 _2927_
*5391 _2926_
*5392 key_reg[77]
*5393 _3976_
*5394 _3433_
*5395 _2931_
*5396 _1154_
*5397 _2931_
*5398 _2936_
*5399 _2935_
*5400 data_in_reg[77]
*5401 _4041_
*5402 _3563_
*5403 _2932_
*5404 _1157_
*5405 _2934_
*5406 _2936_
*5407 _2935_
*5408 key_reg[78]
*5409 _3977_
*5410 _3435_
*5411 _2940_
*5412 _1162_
*5413 _2940_
*5414 _2945_
*5415 _2944_
*5416 data_in_reg[78]
*5417 _4042_
*5418 _3565_
*5419 _2941_
*5420 _1165_
*5421 _2943_
*5422 _2944_
*5423 _2945_
*5424 key_reg[79]
*5425 _3978_
*5426 _3437_
*5427 _2949_
*5428 _1170_
*5429 _2949_
*5430 _2954_
*5431 _2953_
*5432 data_in_reg[79]
*5433 _4043_
*5434 _3567_
*5435 _2950_
*5436 _1173_
*5437 _2952_
*5438 _2953_
*5439 _2954_
*5440 key_reg[80]
*5441 _3979_
*5442 _2958_
*5443 _3439_
*5444 _1178_
*5445 _2958_
*5446 _2962_
*5447 _2963_
*5448 data_in_reg[80]
*5449 _4044_
*5450 _2959_
*5451 _3569_
*5452 _1181_
*5453 _2961_
*5454 _2962_
*5455 _2963_
*5456 key_reg[81]
*5457 _3980_
*5458 _2967_
*5459 _3441_
*5460 _1186_
*5461 _2967_
*5462 _2972_
*5463 _2971_
*5464 data_in_reg[81]
*5465 _4045_
*5466 _3571_
*5467 _2968_
*5468 _1189_
*5469 _2970_
*5470 _2971_
*5471 _2972_
*5472 key_reg[82]
*5473 _3981_
*5474 _3443_
*5475 _2976_
*5476 _1194_
*5477 _2976_
*5478 _2980_
*5479 _2981_
*5480 data_in_reg[82]
*5481 _4046_
*5482 _3573_
*5483 _2977_
*5484 _1197_
*5485 _2979_
*5486 _2981_
*5487 _2980_
*5488 key_reg[83]
*5489 _3982_
*5490 _3445_
*5491 _2985_
*5492 _1202_
*5493 _2985_
*5494 _2990_
*5495 _2989_
*5496 data_in_reg[83]
*5497 _4047_
*5498 _3575_
*5499 _2986_
*5500 _1205_
*5501 _2988_
*5502 _2989_
*5503 _2990_
*5504 key_reg[84]
*5505 _3983_
*5506 _2994_
*5507 _3447_
*5508 _1210_
*5509 _2994_
*5510 _2999_
*5511 _2998_
*5512 data_in_reg[84]
*5513 _4048_
*5514 _3577_
*5515 _2995_
*5516 _1213_
*5517 _2997_
*5518 _2999_
*5519 _2998_
*5520 key_reg[85]
*5521 _3984_
*5522 _3449_
*5523 _3003_
*5524 _1218_
*5525 _3003_
*5526 _3008_
*5527 _3007_
*5528 data_in_reg[85]
*5529 _4049_
*5530 _3579_
*5531 _3004_
*5532 _1221_
*5533 _3006_
*5534 _3007_
*5535 _3008_
*5536 key_reg[86]
*5537 _3985_
*5538 _3451_
*5539 _3012_
*5540 _1226_
*5541 _3012_
*5542 _3017_
*5543 _3016_
*5544 data_in_reg[86]
*5545 _4050_
*5546 _3581_
*5547 _3013_
*5548 _1229_
*5549 _3015_
*5550 _3017_
*5551 _3016_
*5552 key_reg[87]
*5553 _3986_
*5554 _3021_
*5555 _3453_
*5556 _1234_
*5557 _3021_
*5558 _3025_
*5559 _3026_
*5560 data_in_reg[87]
*5561 _4051_
*5562 _3022_
*5563 _3583_
*5564 _1237_
*5565 _3024_
*5566 _3026_
*5567 _3025_
*5568 key_reg[88]
*5569 _3987_
*5570 _3030_
*5571 _3455_
*5572 _1242_
*5573 _3030_
*5574 _3035_
*5575 _3034_
*5576 data_in_reg[88]
*5577 _4052_
*5578 _3585_
*5579 _3031_
*5580 _1245_
*5581 _3033_
*5582 _3035_
*5583 _3034_
*5584 key_reg[89]
*5585 _3988_
*5586 _3039_
*5587 _3457_
*5588 _1250_
*5589 _3039_
*5590 _3044_
*5591 _3043_
*5592 data_in_reg[89]
*5593 _4053_
*5594 _3040_
*5595 _3587_
*5596 _1253_
*5597 _3042_
*5598 _3044_
*5599 _3043_
*5600 key_reg[90]
*5601 _3989_
*5602 _3459_
*5603 _3048_
*5604 _1258_
*5605 _3048_
*5606 _3052_
*5607 _3053_
*5608 data_in_reg[90]
*5609 _4054_
*5610 _3589_
*5611 _3049_
*5612 _1261_
*5613 _3051_
*5614 _3053_
*5615 _3052_
*5616 key_reg[91]
*5617 _3990_
*5618 _3461_
*5619 _3057_
*5620 _1266_
*5621 _3057_
*5622 _3061_
*5623 _3062_
*5624 data_in_reg[91]
*5625 _4055_
*5626 _3591_
*5627 _3058_
*5628 _1269_
*5629 _3060_
*5630 _3062_
*5631 _3061_
*5632 key_reg[92]
*5633 _3991_
*5634 _3463_
*5635 _3066_
*5636 _1274_
*5637 _3066_
*5638 _3070_
*5639 _3071_
*5640 data_in_reg[92]
*5641 _4056_
*5642 _3067_
*5643 _3593_
*5644 _1277_
*5645 _3069_
*5646 _3071_
*5647 _3070_
*5648 key_reg[93]
*5649 _3992_
*5650 _3465_
*5651 _3075_
*5652 _1282_
*5653 _3075_
*5654 _3079_
*5655 _3080_
*5656 data_in_reg[93]
*5657 _4057_
*5658 _3076_
*5659 _3595_
*5660 _1285_
*5661 _3078_
*5662 _3079_
*5663 _3080_
*5664 key_reg[94]
*5665 _3993_
*5666 _3467_
*5667 _3084_
*5668 _1290_
*5669 _3084_
*5670 _3089_
*5671 _3088_
*5672 data_in_reg[94]
*5673 _4058_
*5674 _3597_
*5675 _3085_
*5676 _1293_
*5677 _3087_
*5678 _3089_
*5679 _3088_
*5680 key_reg[95]
*5681 _3994_
*5682 _3469_
*5683 _3093_
*5684 _1298_
*5685 _3093_
*5686 _3097_
*5687 _3098_
*5688 data_in_reg[95]
*5689 _4059_
*5690 _3094_
*5691 _3599_
*5692 _1301_
*5693 _3096_
*5694 _3097_
*5695 _3098_
*5696 key_reg[96]
*5697 _4092_
*5698 _3669_
*5699 _3102_
*5700 _1306_
*5701 _3102_
*5702 _3106_
*5703 _3107_
*5704 _1307_
*5705 _3103_
*5706 _3605_
*5707 _3105_
*5708 _1309_
*5709 _3105_
*5710 _3107_
*5711 _3106_
*5712 key_reg[97]
*5713 _4093_
*5714 _3671_
*5715 _3110_
*5716 _1313_
*5717 _3110_
*5718 _3115_
*5719 _3114_
*5720 _1314_
*5721 _3111_
*5722 _3113_
*5723 _3607_
*5724 _1316_
*5725 _3113_
*5726 _3114_
*5727 _3115_
*5728 key_reg[98]
*5729 _4094_
*5730 _3673_
*5731 _3119_
*5732 _1321_
*5733 _3119_
*5734 _3123_
*5735 _3124_
*5736 _1322_
*5737 _3120_
*5738 _3122_
*5739 _3609_
*5740 _1324_
*5741 _3122_
*5742 _3124_
*5743 _3123_
*5744 key_reg[99]
*5745 _4095_
*5746 _3675_
*5747 _3128_
*5748 _1329_
*5749 _3128_
*5750 _3133_
*5751 _3132_
*5752 _1330_
*5753 _3129_
*5754 _3611_
*5755 _3131_
*5756 _1332_
*5757 _3131_
*5758 _3133_
*5759 _3132_
*5760 key_reg[100]
*5761 _4096_
*5762 _3137_
*5763 _3677_
*5764 _1337_
*5765 _3137_
*5766 _3142_
*5767 _3141_
*5768 _1338_
*5769 _3138_
*5770 _3140_
*5771 _3613_
*5772 _1340_
*5773 _3140_
*5774 _3141_
*5775 _3142_
*5776 key_reg[101]
*5777 _4097_
*5778 _3679_
*5779 _3146_
*5780 _1345_
*5781 _3146_
*5782 _3150_
*5783 _3151_
*5784 _1346_
*5785 _3147_
*5786 _3149_
*5787 _3615_
*5788 _1348_
*5789 _3149_
*5790 _3150_
*5791 _3151_
*5792 key_reg[102]
*5793 _4098_
*5794 _3681_
*5795 _3155_
*5796 _1353_
*5797 _3155_
*5798 _3160_
*5799 _3159_
*5800 _1354_
*5801 _3156_
*5802 _3158_
*5803 _3617_
*5804 _1356_
*5805 _3158_
*5806 _3160_
*5807 _3159_
*5808 key_reg[103]
*5809 _4099_
*5810 _3683_
*5811 _3164_
*5812 _1361_
*5813 _3164_
*5814 _3168_
*5815 _3169_
*5816 _1362_
*5817 _3165_
*5818 _3619_
*5819 _3167_
*5820 _1364_
*5821 _3167_
*5822 _3168_
*5823 _3169_
*5824 key_reg[104]
*5825 _4100_
*5826 _3685_
*5827 _3173_
*5828 _1369_
*5829 _3173_
*5830 _3178_
*5831 _3177_
*5832 _1370_
*5833 _3174_
*5834 _3176_
*5835 _3621_
*5836 _1372_
*5837 _3176_
*5838 _3178_
*5839 _3177_
*5840 key_reg[105]
*5841 _4101_
*5842 _3687_
*5843 _3182_
*5844 _1377_
*5845 _3182_
*5846 _3186_
*5847 _3187_
*5848 _1378_
*5849 _3183_
*5850 _3185_
*5851 _3623_
*5852 _1380_
*5853 _3185_
*5854 _3186_
*5855 _3187_
*5856 key_reg[106]
*5857 _4102_
*5858 _3689_
*5859 _3191_
*5860 _1385_
*5861 _3191_
*5862 _3196_
*5863 _3195_
*5864 _1386_
*5865 _3192_
*5866 _3194_
*5867 _3625_
*5868 _1388_
*5869 _3194_
*5870 _3196_
*5871 _3195_
*5872 key_reg[107]
*5873 _4103_
*5874 _3691_
*5875 _3200_
*5876 _1393_
*5877 _3200_
*5878 _3205_
*5879 _3204_
*5880 _1394_
*5881 _3201_
*5882 _3203_
*5883 _3627_
*5884 _1396_
*5885 _3203_
*5886 _3204_
*5887 _3205_
*5888 key_reg[108]
*5889 _4104_
*5890 _3693_
*5891 _3209_
*5892 _1401_
*5893 _3209_
*5894 _3214_
*5895 _3213_
*5896 _1402_
*5897 _3210_
*5898 _3629_
*5899 _3212_
*5900 _1404_
*5901 _3212_
*5902 _3213_
*5903 _3214_
*5904 key_reg[109]
*5905 _4105_
*5906 _3695_
*5907 _3218_
*5908 _1409_
*5909 _3218_
*5910 _3222_
*5911 _3223_
*5912 _1410_
*5913 _3219_
*5914 _3631_
*5915 _3221_
*5916 _1412_
*5917 _3221_
*5918 _3223_
*5919 _3222_
*5920 key_reg[110]
*5921 _4106_
*5922 _3697_
*5923 _3227_
*5924 _1417_
*5925 _3227_
*5926 _3231_
*5927 _3232_
*5928 _1418_
*5929 _3228_
*5930 _3230_
*5931 _3633_
*5932 _1420_
*5933 _3230_
*5934 _3232_
*5935 _3231_
*5936 key_reg[111]
*5937 _4107_
*5938 _3699_
*5939 _3236_
*5940 _1425_
*5941 _3236_
*5942 _3240_
*5943 _3241_
*5944 _1426_
*5945 _3237_
*5946 _3635_
*5947 _3239_
*5948 _1428_
*5949 _3239_
*5950 _3241_
*5951 _3240_
*5952 key_reg[112]
*5953 _4108_
*5954 _3701_
*5955 _3245_
*5956 _1433_
*5957 _3245_
*5958 _3250_
*5959 _3249_
*5960 _1434_
*5961 _3246_
*5962 _3248_
*5963 _3637_
*5964 _1436_
*5965 _3248_
*5966 _3250_
*5967 _3249_
*5968 key_reg[113]
*5969 _4109_
*5970 _3703_
*5971 _3254_
*5972 _1441_
*5973 _3254_
*5974 _3259_
*5975 _3258_
*5976 _1442_
*5977 _3255_
*5978 _3639_
*5979 _3257_
*5980 _1444_
*5981 _3257_
*5982 _3259_
*5983 _3258_
*5984 key_reg[114]
*5985 _4110_
*5986 _3705_
*5987 _3263_
*5988 _1449_
*5989 _3263_
*5990 _3268_
*5991 _3267_
*5992 _1450_
*5993 _3264_
*5994 _3641_
*5995 _3266_
*5996 _1452_
*5997 _3266_
*5998 _3268_
*5999 _3267_
*6000 key_reg[115]
*6001 _4111_
*6002 _3272_
*6003 _3707_
*6004 _1457_
*6005 _3272_
*6006 _3277_
*6007 _3276_
*6008 _1458_
*6009 _3273_
*6010 _3275_
*6011 _3643_
*6012 _1460_
*6013 _3275_
*6014 _3276_
*6015 _3277_
*6016 key_reg[116]
*6017 _4112_
*6018 _3709_
*6019 _3281_
*6020 _1465_
*6021 _3281_
*6022 _3286_
*6023 _3285_
*6024 _1466_
*6025 _3282_
*6026 _3645_
*6027 _3284_
*6028 _1468_
*6029 _3284_
*6030 _3286_
*6031 _3285_
*6032 key_reg[117]
*6033 _4113_
*6034 _3290_
*6035 _3711_
*6036 _1473_
*6037 _3290_
*6038 _3295_
*6039 _3294_
*6040 _1474_
*6041 _3291_
*6042 _3293_
*6043 _3647_
*6044 _1476_
*6045 _3293_
*6046 _3295_
*6047 _3294_
*6048 key_reg[118]
*6049 _4114_
*6050 _3713_
*6051 _3299_
*6052 _1481_
*6053 _3299_
*6054 _3303_
*6055 _3304_
*6056 _1482_
*6057 _3300_
*6058 _3302_
*6059 _3649_
*6060 _1484_
*6061 _3302_
*6062 _3304_
*6063 _3303_
*6064 key_reg[119]
*6065 _4115_
*6066 _3715_
*6067 _3308_
*6068 _1489_
*6069 _3308_
*6070 _3312_
*6071 _3313_
*6072 _1490_
*6073 _3309_
*6074 _3311_
*6075 _3651_
*6076 _1492_
*6077 _3311_
*6078 _3313_
*6079 _3312_
*6080 key_reg[120]
*6081 _4116_
*6082 _3717_
*6083 _3317_
*6084 _1497_
*6085 _3317_
*6086 _3322_
*6087 _3321_
*6088 _1498_
*6089 _3318_
*6090 _3320_
*6091 _3653_
*6092 _1500_
*6093 _3320_
*6094 _3322_
*6095 _3321_
*6096 key_reg[121]
*6097 _4117_
*6098 _3326_
*6099 _3719_
*6100 _1505_
*6101 _3326_
*6102 _3330_
*6103 _3331_
*6104 _1506_
*6105 _3327_
*6106 _3329_
*6107 _3655_
*6108 _1508_
*6109 _3329_
*6110 _3331_
*6111 _3330_
*6112 key_reg[122]
*6113 _4118_
*6114 _3721_
*6115 _3335_
*6116 _1513_
*6117 _3335_
*6118 _3339_
*6119 _3340_
*6120 _1514_
*6121 _3336_
*6122 _3657_
*6123 _3338_
*6124 _1516_
*6125 _3338_
*6126 _3340_
*6127 _3339_
*6128 key_reg[123]
*6129 _4119_
*6130 _3344_
*6131 _3723_
*6132 _1521_
*6133 _3344_
*6134 _3348_
*6135 _3349_
*6136 _1522_
*6137 _3345_
*6138 _3347_
*6139 _3659_
*6140 _1524_
*6141 _3347_
*6142 _3348_
*6143 _3349_
*6144 key_reg[124]
*6145 _4120_
*6146 _3353_
*6147 _3725_
*6148 _1529_
*6149 _3353_
*6150 _3358_
*6151 _3357_
*6152 _1530_
*6153 _3354_
*6154 _3661_
*6155 _3356_
*6156 _1532_
*6157 _3356_
*6158 _3357_
*6159 _3358_
*6160 key_reg[125]
*6161 _4121_
*6162 _3727_
*6163 _3362_
*6164 _1537_
*6165 _3362_
*6166 _3366_
*6167 _3367_
*6168 _1538_
*6169 _3363_
*6170 _3365_
*6171 _3663_
*6172 _1540_
*6173 _3365_
*6174 _3366_
*6175 _3367_
*6176 key_reg[126]
*6177 _4122_
*6178 _3729_
*6179 _3371_
*6180 _1545_
*6181 _3371_
*6182 _3375_
*6183 _3376_
*6184 _1546_
*6185 _3372_
*6186 _3374_
*6187 _3665_
*6188 _1548_
*6189 _3374_
*6190 _3376_
*6191 _3375_
*6192 key_reg[127]
*6193 _4123_
*6194 _3731_
*6195 _3380_
*6196 _1553_
*6197 _3380_
*6198 _3385_
*6199 _3384_
*6200 _1554_
*6201 _3381_
*6202 _3667_
*6203 _3383_
*6204 _1556_
*6205 _3383_
*6206 _3384_
*6207 _3385_
*6208 _1566_
*6209 _3396_
*6210 _3398_
*6211 _3397_
*6212 _1568_
*6213 _3398_
*6214 _3401_
*6215 _3399_
*6216 _1569_
*6217 _3399_
*6218 _3402_
*6219 _3400_
*6220 _1572_
*6221 _3405_
*6222 _3536_
*6223 _3406_
*6224 _1673_
*6225 _3602_
*6226 _3603_
*6227 _3668_
*6228 round_cnt[3]
*6229 _3961_
*6230 _1854_
*6231 _1744_
*6232 _1855_
*6233 _1856_
*6234 _1747_
*6235 _1859_
*6236 _1860_
*6237 _1753_
*6238 _1865_
*6239 _1866_
*6240 _1758_
*6241 _1870_
*6242 _1871_
*6243 _1760_
*6244 _1872_
*6245 _1873_
*6246 _1761_
*6247 _1873_
*6248 _1886_
*6249 _1763_
*6250 _1875_
*6251 _1876_
*6252 _1765_
*6253 _1877_
*6254 _1885_
*6255 _1767_
*6256 _1879_
*6257 _1880_
*6258 _1769_
*6259 _1881_
*6260 _1885_
*6261 _1770_
*6262 _1882_
*6263 _1883_
*6264 _1772_
*6265 _1884_
*6266 _1885_
*6267 _1773_
*6268 _1885_
*6269 _1886_
*6270 _1774_
*6271 _1886_
*6272 _1887_
*6273 _1850_[0]
*6274 _1887_
*6275 _4124_
*6276 _1777_
*6277 _1890_
*6278 _1891_
*6279 _1778_
*6280 _1891_
*6281 _1896_
*6282 _1779_
*6283 _1892_
*6284 _1895_
*6285 _1780_
*6286 _1893_
*6287 _1895_
*6288 _1781_
*6289 _1894_
*6290 _1895_
*6291 _1782_
*6292 _1895_
*6293 _1896_
*6294 _1783_
*6295 _1896_
*6296 _1897_
*6297 _1850_[1]
*6298 _1897_
*6299 _4125_
*6300 _1789_
*6301 _1903_
*6302 _1908_
*6303 _1793_
*6304 _1907_
*6305 _1908_
*6306 _1850_[2]
*6307 _1908_
*6308 _4136_
*6309 _1794_
*6310 _1909_
*6311 _1911_
*6312 _1795_
*6313 _1910_
*6314 _1911_
*6315 _1850_[3]
*6316 _1911_
*6317 _4147_
*6318 _1796_
*6319 _1912_
*6320 _1914_
*6321 _1797_
*6322 _1913_
*6323 _1914_
*6324 _1850_[4]
*6325 _1914_
*6326 _4150_
*6327 _1798_
*6328 _1915_
*6329 _1917_
*6330 _1799_
*6331 _1916_
*6332 _1917_
*6333 _1850_[5]
*6334 _1917_
*6335 _4151_
*6336 _1800_
*6337 _1918_
*6338 _1920_
*6339 _1801_
*6340 _1919_
*6341 _1920_
*6342 _1850_[6]
*6343 _1920_
*6344 _4152_
*6345 _1802_
*6346 _1921_
*6347 _1923_
*6348 _1803_
*6349 _1922_
*6350 _1923_
*6351 _1850_[7]
*6352 _1923_
*6353 _4153_
*6354 _1804_
*6355 _1924_
*6356 _1926_
*6357 _1805_
*6358 _1925_
*6359 _1926_
*6360 _1850_[8]
*6361 _1926_
*6362 _4154_
*6363 _1806_
*6364 _1927_
*6365 _1929_
*6366 _1807_
*6367 _1928_
*6368 _1929_
*6369 _1850_[9]
*6370 _1929_
*6371 _4155_
*6372 _1808_
*6373 _1930_
*6374 _1932_
*6375 _1809_
*6376 _1931_
*6377 _1932_
*6378 _1850_[10]
*6379 _1932_
*6380 _4126_
*6381 _1810_
*6382 _1933_
*6383 _1935_
*6384 _1811_
*6385 _1934_
*6386 _1935_
*6387 _1850_[11]
*6388 _1935_
*6389 _4127_
*6390 _1812_
*6391 _1936_
*6392 _1938_
*6393 _1813_
*6394 _1937_
*6395 _1938_
*6396 _1850_[12]
*6397 _1938_
*6398 _4128_
*6399 _1814_
*6400 _1939_
*6401 _1941_
*6402 _1815_
*6403 _1940_
*6404 _1941_
*6405 _1850_[13]
*6406 _1941_
*6407 _4129_
*6408 _1816_
*6409 _1942_
*6410 _1944_
*6411 _1817_
*6412 _1943_
*6413 _1944_
*6414 _1850_[14]
*6415 _1944_
*6416 _4130_
*6417 _1818_
*6418 _1945_
*6419 _1947_
*6420 _1819_
*6421 _1946_
*6422 _1947_
*6423 _1850_[15]
*6424 _1947_
*6425 _4131_
*6426 _1820_
*6427 _1948_
*6428 _1950_
*6429 _1821_
*6430 _1949_
*6431 _1950_
*6432 _1850_[16]
*6433 _1950_
*6434 _4132_
*6435 _1822_
*6436 _1951_
*6437 _1953_
*6438 _1823_
*6439 _1952_
*6440 _1953_
*6441 _1850_[17]
*6442 _1953_
*6443 _4133_
*6444 _1824_
*6445 _1954_
*6446 _1956_
*6447 _1825_
*6448 _1955_
*6449 _1956_
*6450 _1850_[18]
*6451 _1956_
*6452 _4134_
*6453 _1826_
*6454 _1957_
*6455 _1959_
*6456 _1827_
*6457 _1958_
*6458 _1959_
*6459 _1850_[19]
*6460 _1959_
*6461 _4135_
*6462 _1828_
*6463 _1960_
*6464 _1962_
*6465 _1829_
*6466 _1961_
*6467 _1962_
*6468 _1850_[20]
*6469 _1962_
*6470 _4137_
*6471 _1830_
*6472 _1963_
*6473 _1965_
*6474 _1831_
*6475 _1964_
*6476 _1965_
*6477 _1850_[21]
*6478 _1965_
*6479 _4138_
*6480 _1832_
*6481 _1966_
*6482 _1968_
*6483 _1833_
*6484 _1967_
*6485 _1968_
*6486 _1850_[22]
*6487 _1968_
*6488 _4139_
*6489 _1834_
*6490 _1969_
*6491 _1971_
*6492 _1835_
*6493 _1970_
*6494 _1971_
*6495 _1850_[23]
*6496 _1971_
*6497 _4140_
*6498 _1836_
*6499 _1972_
*6500 _1974_
*6501 _1837_
*6502 _1973_
*6503 _1974_
*6504 _1850_[24]
*6505 _1974_
*6506 _4141_
*6507 _1838_
*6508 _1975_
*6509 _1977_
*6510 _1839_
*6511 _1976_
*6512 _1977_
*6513 _1850_[25]
*6514 _1977_
*6515 _4142_
*6516 _1840_
*6517 _1978_
*6518 _1980_
*6519 _1841_
*6520 _1979_
*6521 _1980_
*6522 _1850_[26]
*6523 _1980_
*6524 _4143_
*6525 _1842_
*6526 _1981_
*6527 _1983_
*6528 _1843_
*6529 _1982_
*6530 _1983_
*6531 _1850_[27]
*6532 _1983_
*6533 _4144_
*6534 _1844_
*6535 _1984_
*6536 _1986_
*6537 _1845_
*6538 _1985_
*6539 _1986_
*6540 _1850_[28]
*6541 _1986_
*6542 _4145_
*6543 _1846_
*6544 _1987_
*6545 _1989_
*6546 _1847_
*6547 _1988_
*6548 _1989_
*6549 _1850_[29]
*6550 _1989_
*6551 _4146_
*6552 _1848_
*6553 _1990_
*6554 _1992_
*6555 _1849_
*6556 _1991_
*6557 _1992_
*6558 _1850_[30]
*6559 _1992_
*6560 _4148_
*6561 _391_
*6562 _1993_
*6563 _1995_
*6564 _392_
*6565 _1994_
*6566 _1995_
*6567 _1850_[31]
*6568 _1995_
*6569 _4149_
*6570 _393_
*6571 _1996_
*6572 _2000_
*6573 penable
*6574 _1998_
*6575 _396_
*6576 _1999_
*6577 _2000_
*6578 _1_
*6579 _2000_
*6580 _3995_
*6581 _398_
*6582 _2002_
*6583 _2003_
*6584 _400_
*6585 _2004_
*6586 _2005_
*6587 _403_
*6588 _2007_
*6589 _2008_
*6590 _2_
*6591 _2008_
*6592 _3733_
*6593 _405_
*6594 _2010_
*6595 _2011_
*6596 _3_
*6597 _2011_
*6598 _3734_
*6599 _407_
*6600 _2013_
*6601 _2014_
*6602 _4_
*6603 _2014_
*6604 _3735_
*6605 _409_
*6606 _2016_
*6607 _2017_
*6608 _5_
*6609 _2017_
*6610 _3736_
*6611 _411_
*6612 _2019_
*6613 _2020_
*6614 _6_
*6615 _2020_
*6616 _3737_
*6617 _413_
*6618 _2022_
*6619 _2023_
*6620 _7_
*6621 _2023_
*6622 _3738_
*6623 _415_
*6624 _2025_
*6625 _2026_
*6626 _8_
*6627 _2026_
*6628 _3739_
*6629 _417_
*6630 _2028_
*6631 _2029_
*6632 _9_
*6633 _2029_
*6634 _3740_
*6635 _419_
*6636 _2031_
*6637 _2032_
*6638 _10_
*6639 _2032_
*6640 _3741_
*6641 _421_
*6642 _2034_
*6643 _2035_
*6644 _11_
*6645 _2035_
*6646 _3742_
*6647 _423_
*6648 _2037_
*6649 _2038_
*6650 _12_
*6651 _2038_
*6652 _3743_
*6653 _425_
*6654 _2040_
*6655 _2041_
*6656 _13_
*6657 _2041_
*6658 _3744_
*6659 _427_
*6660 _2043_
*6661 _2044_
*6662 _14_
*6663 _2044_
*6664 _3745_
*6665 _429_
*6666 _2046_
*6667 _2047_
*6668 _15_
*6669 _2047_
*6670 _3746_
*6671 _431_
*6672 _2049_
*6673 _2050_
*6674 _16_
*6675 _2050_
*6676 _3747_
*6677 _433_
*6678 _2052_
*6679 _2053_
*6680 _17_
*6681 _2053_
*6682 _3748_
*6683 _435_
*6684 _2055_
*6685 _2056_
*6686 _18_
*6687 _2056_
*6688 _3749_
*6689 _437_
*6690 _2058_
*6691 _2059_
*6692 _19_
*6693 _2059_
*6694 _3750_
*6695 _439_
*6696 _2061_
*6697 _2062_
*6698 _20_
*6699 _2062_
*6700 _3751_
*6701 _441_
*6702 _2064_
*6703 _2065_
*6704 _21_
*6705 _2065_
*6706 _3752_
*6707 _443_
*6708 _2067_
*6709 _2068_
*6710 _22_
*6711 _2068_
*6712 _3753_
*6713 _445_
*6714 _2070_
*6715 _2071_
*6716 _23_
*6717 _2071_
*6718 _3754_
*6719 _447_
*6720 _2073_
*6721 _2074_
*6722 _24_
*6723 _2074_
*6724 _3755_
*6725 _449_
*6726 _2076_
*6727 _2077_
*6728 _25_
*6729 _2077_
*6730 _3756_
*6731 _451_
*6732 _2079_
*6733 _2080_
*6734 _26_
*6735 _2080_
*6736 _3757_
*6737 _453_
*6738 _2082_
*6739 _2083_
*6740 _27_
*6741 _2083_
*6742 _3758_
*6743 _455_
*6744 _2085_
*6745 _2086_
*6746 _28_
*6747 _2086_
*6748 _3759_
*6749 _457_
*6750 _2088_
*6751 _2089_
*6752 _29_
*6753 _2089_
*6754 _3760_
*6755 _459_
*6756 _2091_
*6757 _2092_
*6758 _30_
*6759 _2092_
*6760 _3761_
*6761 _461_
*6762 _2094_
*6763 _2095_
*6764 _31_
*6765 _2095_
*6766 _3762_
*6767 _463_
*6768 _2097_
*6769 _2098_
*6770 _32_
*6771 _2098_
*6772 _3763_
*6773 _465_
*6774 _2100_
*6775 _2101_
*6776 _33_
*6777 _2101_
*6778 _3764_
*6779 _468_
*6780 _2104_
*6781 _2105_
*6782 _34_
*6783 _2105_
*6784 _3765_
*6785 _469_
*6786 _2106_
*6787 _2107_
*6788 _35_
*6789 _2107_
*6790 _3766_
*6791 _470_
*6792 _2108_
*6793 _2109_
*6794 _36_
*6795 _2109_
*6796 _3767_
*6797 _471_
*6798 _2110_
*6799 _2111_
*6800 _37_
*6801 _2111_
*6802 _3768_
*6803 _472_
*6804 _2112_
*6805 _2113_
*6806 _38_
*6807 _2113_
*6808 _3769_
*6809 _473_
*6810 _2114_
*6811 _2115_
*6812 _39_
*6813 _2115_
*6814 _3770_
*6815 _474_
*6816 _2116_
*6817 _2117_
*6818 _40_
*6819 _2117_
*6820 _3771_
*6821 _475_
*6822 _2118_
*6823 _2119_
*6824 _41_
*6825 _2119_
*6826 _3772_
*6827 _476_
*6828 _2120_
*6829 _2121_
*6830 _42_
*6831 _2121_
*6832 _3773_
*6833 _477_
*6834 _2122_
*6835 _2123_
*6836 _43_
*6837 _2123_
*6838 _3774_
*6839 _478_
*6840 _2124_
*6841 _2125_
*6842 _44_
*6843 _2125_
*6844 _3775_
*6845 _479_
*6846 _2126_
*6847 _2127_
*6848 _45_
*6849 _2127_
*6850 _3776_
*6851 _480_
*6852 _2128_
*6853 _2129_
*6854 _46_
*6855 _2129_
*6856 _3777_
*6857 _481_
*6858 _2130_
*6859 _2131_
*6860 _47_
*6861 _2131_
*6862 _3778_
*6863 _482_
*6864 _2132_
*6865 _2133_
*6866 _48_
*6867 _2133_
*6868 _3779_
*6869 _483_
*6870 _2134_
*6871 _2135_
*6872 _49_
*6873 _2135_
*6874 _3780_
*6875 _484_
*6876 _2136_
*6877 _2137_
*6878 _50_
*6879 _2137_
*6880 _3781_
*6881 _485_
*6882 _2138_
*6883 _2139_
*6884 _51_
*6885 _2139_
*6886 _3782_
*6887 _486_
*6888 _2140_
*6889 _2141_
*6890 _52_
*6891 _2141_
*6892 _3783_
*6893 _487_
*6894 _2142_
*6895 _2143_
*6896 _53_
*6897 _2143_
*6898 _3784_
*6899 _488_
*6900 _2144_
*6901 _2145_
*6902 _54_
*6903 _2145_
*6904 _3785_
*6905 _489_
*6906 _2146_
*6907 _2147_
*6908 _55_
*6909 _2147_
*6910 _3786_
*6911 _490_
*6912 _2148_
*6913 _2149_
*6914 _56_
*6915 _2149_
*6916 _3787_
*6917 _491_
*6918 _2150_
*6919 _2151_
*6920 _57_
*6921 _2151_
*6922 _3788_
*6923 _492_
*6924 _2152_
*6925 _2153_
*6926 _58_
*6927 _2153_
*6928 _3789_
*6929 _493_
*6930 _2154_
*6931 _2155_
*6932 _59_
*6933 _2155_
*6934 _3790_
*6935 _494_
*6936 _2156_
*6937 _2157_
*6938 _60_
*6939 _2157_
*6940 _3791_
*6941 _495_
*6942 _2158_
*6943 _2159_
*6944 _61_
*6945 _2159_
*6946 _3792_
*6947 _496_
*6948 _2160_
*6949 _2161_
*6950 _62_
*6951 _2161_
*6952 _3793_
*6953 _497_
*6954 _2162_
*6955 _2163_
*6956 _63_
*6957 _2163_
*6958 _3794_
*6959 _498_
*6960 _2164_
*6961 _2165_
*6962 _64_
*6963 _2165_
*6964 _3795_
*6965 _499_
*6966 _2166_
*6967 _2167_
*6968 _65_
*6969 _2167_
*6970 _3796_
*6971 _500_
*6972 _2168_
*6973 _2169_
*6974 _503_
*6975 _2171_
*6976 _2172_
*6977 _66_
*6978 _2172_
*6979 _3797_
*6980 _504_
*6981 _2173_
*6982 _2174_
*6983 _67_
*6984 _2174_
*6985 _3798_
*6986 _505_
*6987 _2175_
*6988 _2176_
*6989 _68_
*6990 _2176_
*6991 _3799_
*6992 _506_
*6993 _2177_
*6994 _2178_
*6995 _69_
*6996 _2178_
*6997 _3800_
*6998 _507_
*6999 _2179_
*7000 _2180_
*7001 _70_
*7002 _2180_
*7003 _3801_
*7004 _508_
*7005 _2181_
*7006 _2182_
*7007 _71_
*7008 _2182_
*7009 _3802_
*7010 _509_
*7011 _2183_
*7012 _2184_
*7013 _72_
*7014 _2184_
*7015 _3803_
*7016 _510_
*7017 _2185_
*7018 _2186_
*7019 _73_
*7020 _2186_
*7021 _3804_
*7022 _511_
*7023 _2187_
*7024 _2188_
*7025 _74_
*7026 _2188_
*7027 _3805_
*7028 _512_
*7029 _2189_
*7030 _2190_
*7031 _75_
*7032 _2190_
*7033 _3806_
*7034 _513_
*7035 _2191_
*7036 _2192_
*7037 _76_
*7038 _2192_
*7039 _3807_
*7040 _514_
*7041 _2193_
*7042 _2194_
*7043 _77_
*7044 _2194_
*7045 _3808_
*7046 _515_
*7047 _2195_
*7048 _2196_
*7049 _78_
*7050 _2196_
*7051 _3809_
*7052 _516_
*7053 _2197_
*7054 _2198_
*7055 _79_
*7056 _2198_
*7057 _3810_
*7058 _517_
*7059 _2199_
*7060 _2200_
*7061 _80_
*7062 _2200_
*7063 _3811_
*7064 _518_
*7065 _2201_
*7066 _2202_
*7067 _81_
*7068 _2202_
*7069 _3812_
*7070 _519_
*7071 _2203_
*7072 _2204_
*7073 _82_
*7074 _2204_
*7075 _3813_
*7076 _520_
*7077 _2205_
*7078 _2206_
*7079 _83_
*7080 _2206_
*7081 _3814_
*7082 _521_
*7083 _2207_
*7084 _2208_
*7085 _84_
*7086 _2208_
*7087 _3815_
*7088 _522_
*7089 _2209_
*7090 _2210_
*7091 _85_
*7092 _2210_
*7093 _3816_
*7094 _523_
*7095 _2211_
*7096 _2212_
*7097 _86_
*7098 _2212_
*7099 _3817_
*7100 _524_
*7101 _2213_
*7102 _2214_
*7103 _87_
*7104 _2214_
*7105 _3818_
*7106 _525_
*7107 _2215_
*7108 _2216_
*7109 _88_
*7110 _2216_
*7111 _3819_
*7112 _526_
*7113 _2217_
*7114 _2218_
*7115 _89_
*7116 _2218_
*7117 _3820_
*7118 _527_
*7119 _2219_
*7120 _2220_
*7121 _90_
*7122 _2220_
*7123 _3821_
*7124 _528_
*7125 _2221_
*7126 _2222_
*7127 _91_
*7128 _2222_
*7129 _3822_
*7130 _529_
*7131 _2223_
*7132 _2224_
*7133 _92_
*7134 _2224_
*7135 _3823_
*7136 _530_
*7137 _2225_
*7138 _2226_
*7139 _93_
*7140 _2226_
*7141 _3824_
*7142 _531_
*7143 _2227_
*7144 _2228_
*7145 _94_
*7146 _2228_
*7147 _3825_
*7148 _532_
*7149 _2229_
*7150 _2230_
*7151 _95_
*7152 _2230_
*7153 _3826_
*7154 _533_
*7155 _2231_
*7156 _2232_
*7157 _96_
*7158 _2232_
*7159 _3827_
*7160 _534_
*7161 _2233_
*7162 _2234_
*7163 _97_
*7164 _2234_
*7165 _3828_
*7166 _538_
*7167 _2238_
*7168 _2241_
*7169 _540_
*7170 _2240_
*7171 _2241_
*7172 _542_
*7173 _2242_
*7174 _2244_
*7175 _543_
*7176 _2243_
*7177 _2244_
*7178 _544_
*7179 _2244_
*7180 _2245_
*7181 _98_
*7182 _2245_
*7183 _3829_
*7184 _545_
*7185 _2246_
*7186 _2254_
*7187 _547_
*7188 _2248_
*7189 _2250_
*7190 _548_
*7191 _2249_
*7192 _2250_
*7193 _550_
*7194 _2251_
*7195 _2253_
*7196 _551_
*7197 _2252_
*7198 _2253_
*7199 _552_
*7200 _2253_
*7201 _2254_
*7202 _99_
*7203 _2254_
*7204 _3830_
*7205 _553_
*7206 _2255_
*7207 _2263_
*7208 _555_
*7209 _2257_
*7210 _2259_
*7211 _556_
*7212 _2258_
*7213 _2259_
*7214 _558_
*7215 _2260_
*7216 _2262_
*7217 _559_
*7218 _2261_
*7219 _2262_
*7220 _560_
*7221 _2262_
*7222 _2263_
*7223 _100_
*7224 _2263_
*7225 _3831_
*7226 _561_
*7227 _2264_
*7228 _2272_
*7229 _563_
*7230 _2266_
*7231 _2268_
*7232 _564_
*7233 _2267_
*7234 _2268_
*7235 _566_
*7236 _2269_
*7237 _2271_
*7238 _567_
*7239 _2270_
*7240 _2271_
*7241 _568_
*7242 _2271_
*7243 _2272_
*7244 _101_
*7245 _2272_
*7246 _3832_
*7247 _569_
*7248 _2273_
*7249 _2281_
*7250 _571_
*7251 _2275_
*7252 _2277_
*7253 _572_
*7254 _2276_
*7255 _2277_
*7256 _574_
*7257 _2278_
*7258 _2280_
*7259 _575_
*7260 _2279_
*7261 _2280_
*7262 _576_
*7263 _2280_
*7264 _2281_
*7265 _102_
*7266 _2281_
*7267 _3833_
*7268 _577_
*7269 _2282_
*7270 _2290_
*7271 _579_
*7272 _2284_
*7273 _2286_
*7274 _580_
*7275 _2285_
*7276 _2286_
*7277 _582_
*7278 _2287_
*7279 _2289_
*7280 _583_
*7281 _2288_
*7282 _2289_
*7283 _584_
*7284 _2289_
*7285 _2290_
*7286 _103_
*7287 _2290_
*7288 _3834_
*7289 _585_
*7290 _2291_
*7291 _2299_
*7292 _587_
*7293 _2293_
*7294 _2295_
*7295 _588_
*7296 _2294_
*7297 _2295_
*7298 _590_
*7299 _2296_
*7300 _2298_
*7301 _591_
*7302 _2297_
*7303 _2298_
*7304 _592_
*7305 _2298_
*7306 _2299_
*7307 _104_
*7308 _2299_
*7309 _3835_
*7310 _593_
*7311 _2300_
*7312 _2308_
*7313 _595_
*7314 _2302_
*7315 _2304_
*7316 _596_
*7317 _2303_
*7318 _2304_
*7319 _598_
*7320 _2305_
*7321 _2307_
*7322 _599_
*7323 _2306_
*7324 _2307_
*7325 _600_
*7326 _2307_
*7327 _2308_
*7328 _105_
*7329 _2308_
*7330 _3836_
*7331 _601_
*7332 _2309_
*7333 _2317_
*7334 _603_
*7335 _2311_
*7336 _2313_
*7337 _604_
*7338 _2312_
*7339 _2313_
*7340 _606_
*7341 _2314_
*7342 _2316_
*7343 _607_
*7344 _2315_
*7345 _2316_
*7346 _608_
*7347 _2316_
*7348 _2317_
*7349 _106_
*7350 _2317_
*7351 _3837_
*7352 _609_
*7353 _2318_
*7354 _2326_
*7355 _611_
*7356 _2320_
*7357 _2322_
*7358 _612_
*7359 _2321_
*7360 _2322_
*7361 _614_
*7362 _2323_
*7363 _2325_
*7364 _615_
*7365 _2324_
*7366 _2325_
*7367 _616_
*7368 _2325_
*7369 _2326_
*7370 _107_
*7371 _2326_
*7372 _3838_
*7373 _617_
*7374 _2327_
*7375 _2335_
*7376 _619_
*7377 _2329_
*7378 _2331_
*7379 _620_
*7380 _2330_
*7381 _2331_
*7382 _622_
*7383 _2332_
*7384 _2334_
*7385 _623_
*7386 _2333_
*7387 _2334_
*7388 _624_
*7389 _2334_
*7390 _2335_
*7391 _108_
*7392 _2335_
*7393 _3839_
*7394 _625_
*7395 _2336_
*7396 _2344_
*7397 _627_
*7398 _2338_
*7399 _2340_
*7400 _628_
*7401 _2339_
*7402 _2340_
*7403 _630_
*7404 _2341_
*7405 _2343_
*7406 _631_
*7407 _2342_
*7408 _2343_
*7409 _632_
*7410 _2343_
*7411 _2344_
*7412 _109_
*7413 _2344_
*7414 _3840_
*7415 _633_
*7416 _2345_
*7417 _2353_
*7418 _635_
*7419 _2347_
*7420 _2349_
*7421 _636_
*7422 _2348_
*7423 _2349_
*7424 _638_
*7425 _2350_
*7426 _2352_
*7427 _639_
*7428 _2351_
*7429 _2352_
*7430 _640_
*7431 _2352_
*7432 _2353_
*7433 _110_
*7434 _2353_
*7435 _3841_
*7436 _641_
*7437 _2354_
*7438 _2362_
*7439 _643_
*7440 _2356_
*7441 _2358_
*7442 _644_
*7443 _2357_
*7444 _2358_
*7445 _646_
*7446 _2359_
*7447 _2361_
*7448 _647_
*7449 _2360_
*7450 _2361_
*7451 _648_
*7452 _2361_
*7453 _2362_
*7454 _111_
*7455 _2362_
*7456 _3842_
*7457 _649_
*7458 _2363_
*7459 _2371_
*7460 _651_
*7461 _2365_
*7462 _2367_
*7463 _652_
*7464 _2366_
*7465 _2367_
*7466 _654_
*7467 _2368_
*7468 _2370_
*7469 _655_
*7470 _2369_
*7471 _2370_
*7472 _656_
*7473 _2370_
*7474 _2371_
*7475 _112_
*7476 _2371_
*7477 _3843_
*7478 _657_
*7479 _2372_
*7480 _2380_
*7481 _659_
*7482 _2374_
*7483 _2376_
*7484 _660_
*7485 _2375_
*7486 _2376_
*7487 _662_
*7488 _2377_
*7489 _2379_
*7490 _663_
*7491 _2378_
*7492 _2379_
*7493 _664_
*7494 _2379_
*7495 _2380_
*7496 _113_
*7497 _2380_
*7498 _3844_
*7499 _665_
*7500 _2381_
*7501 _2389_
*7502 _667_
*7503 _2383_
*7504 _2385_
*7505 _668_
*7506 _2384_
*7507 _2385_
*7508 _670_
*7509 _2386_
*7510 _2388_
*7511 _671_
*7512 _2387_
*7513 _2388_
*7514 _672_
*7515 _2388_
*7516 _2389_
*7517 _114_
*7518 _2389_
*7519 _3845_
*7520 _673_
*7521 _2390_
*7522 _2398_
*7523 _675_
*7524 _2392_
*7525 _2394_
*7526 _676_
*7527 _2393_
*7528 _2394_
*7529 _678_
*7530 _2395_
*7531 _2397_
*7532 _679_
*7533 _2396_
*7534 _2397_
*7535 _680_
*7536 _2397_
*7537 _2398_
*7538 _115_
*7539 _2398_
*7540 _3846_
*7541 _681_
*7542 _2399_
*7543 _2407_
*7544 _683_
*7545 _2401_
*7546 _2403_
*7547 _684_
*7548 _2402_
*7549 _2403_
*7550 _686_
*7551 _2404_
*7552 _2406_
*7553 _687_
*7554 _2405_
*7555 _2406_
*7556 _688_
*7557 _2406_
*7558 _2407_
*7559 _116_
*7560 _2407_
*7561 _3847_
*7562 _689_
*7563 _2408_
*7564 _2416_
*7565 _691_
*7566 _2410_
*7567 _2412_
*7568 _692_
*7569 _2411_
*7570 _2412_
*7571 _694_
*7572 _2413_
*7573 _2415_
*7574 _695_
*7575 _2414_
*7576 _2415_
*7577 _696_
*7578 _2415_
*7579 _2416_
*7580 _117_
*7581 _2416_
*7582 _3848_
*7583 _697_
*7584 _2417_
*7585 _2425_
*7586 _699_
*7587 _2419_
*7588 _2421_
*7589 _700_
*7590 _2420_
*7591 _2421_
*7592 _702_
*7593 _2422_
*7594 _2424_
*7595 _703_
*7596 _2423_
*7597 _2424_
*7598 _704_
*7599 _2424_
*7600 _2425_
*7601 _118_
*7602 _2425_
*7603 _3849_
*7604 _705_
*7605 _2426_
*7606 _2434_
*7607 _707_
*7608 _2428_
*7609 _2430_
*7610 _708_
*7611 _2429_
*7612 _2430_
*7613 _710_
*7614 _2431_
*7615 _2433_
*7616 _711_
*7617 _2432_
*7618 _2433_
*7619 _712_
*7620 _2433_
*7621 _2434_
*7622 _119_
*7623 _2434_
*7624 _3850_
*7625 _713_
*7626 _2435_
*7627 _2443_
*7628 _715_
*7629 _2437_
*7630 _2439_
*7631 _716_
*7632 _2438_
*7633 _2439_
*7634 _718_
*7635 _2440_
*7636 _2442_
*7637 _719_
*7638 _2441_
*7639 _2442_
*7640 _720_
*7641 _2442_
*7642 _2443_
*7643 _120_
*7644 _2443_
*7645 _3851_
*7646 _721_
*7647 _2444_
*7648 _2452_
*7649 _723_
*7650 _2446_
*7651 _2448_
*7652 _724_
*7653 _2447_
*7654 _2448_
*7655 _726_
*7656 _2449_
*7657 _2451_
*7658 _727_
*7659 _2450_
*7660 _2451_
*7661 _728_
*7662 _2451_
*7663 _2452_
*7664 _121_
*7665 _2452_
*7666 _3852_
*7667 _729_
*7668 _2453_
*7669 _2461_
*7670 _731_
*7671 _2455_
*7672 _2457_
*7673 _732_
*7674 _2456_
*7675 _2457_
*7676 _734_
*7677 _2458_
*7678 _2460_
*7679 _735_
*7680 _2459_
*7681 _2460_
*7682 _736_
*7683 _2460_
*7684 _2461_
*7685 _122_
*7686 _2461_
*7687 _3853_
*7688 _737_
*7689 _2462_
*7690 _2470_
*7691 _739_
*7692 _2464_
*7693 _2466_
*7694 _740_
*7695 _2465_
*7696 _2466_
*7697 _742_
*7698 _2467_
*7699 _2469_
*7700 _743_
*7701 _2468_
*7702 _2469_
*7703 _744_
*7704 _2469_
*7705 _2470_
*7706 _123_
*7707 _2470_
*7708 _3854_
*7709 _745_
*7710 _2471_
*7711 _2479_
*7712 _747_
*7713 _2473_
*7714 _2475_
*7715 _748_
*7716 _2474_
*7717 _2475_
*7718 _750_
*7719 _2476_
*7720 _2478_
*7721 _751_
*7722 _2477_
*7723 _2478_
*7724 _752_
*7725 _2478_
*7726 _2479_
*7727 _124_
*7728 _2479_
*7729 _3855_
*7730 _753_
*7731 _2480_
*7732 _2488_
*7733 _755_
*7734 _2482_
*7735 _2484_
*7736 _756_
*7737 _2483_
*7738 _2484_
*7739 _758_
*7740 _2485_
*7741 _2487_
*7742 _759_
*7743 _2486_
*7744 _2487_
*7745 _760_
*7746 _2487_
*7747 _2488_
*7748 _125_
*7749 _2488_
*7750 _3856_
*7751 _761_
*7752 _2489_
*7753 _2497_
*7754 _763_
*7755 _2491_
*7756 _2493_
*7757 _764_
*7758 _2492_
*7759 _2493_
*7760 _766_
*7761 _2494_
*7762 _2496_
*7763 _767_
*7764 _2495_
*7765 _2496_
*7766 _768_
*7767 _2496_
*7768 _2497_
*7769 _126_
*7770 _2497_
*7771 _3857_
*7772 _769_
*7773 _2498_
*7774 _2506_
*7775 _771_
*7776 _2500_
*7777 _2502_
*7778 _772_
*7779 _2501_
*7780 _2502_
*7781 _774_
*7782 _2503_
*7783 _2505_
*7784 _775_
*7785 _2504_
*7786 _2505_
*7787 _776_
*7788 _2505_
*7789 _2506_
*7790 _127_
*7791 _2506_
*7792 _3858_
*7793 _777_
*7794 _2507_
*7795 _2515_
*7796 _779_
*7797 _2509_
*7798 _2511_
*7799 _780_
*7800 _2510_
*7801 _2511_
*7802 _782_
*7803 _2512_
*7804 _2514_
*7805 _783_
*7806 _2513_
*7807 _2514_
*7808 _784_
*7809 _2514_
*7810 _2515_
*7811 _128_
*7812 _2515_
*7813 _3859_
*7814 _785_
*7815 _2516_
*7816 _2524_
*7817 _787_
*7818 _2518_
*7819 _2520_
*7820 _788_
*7821 _2519_
*7822 _2520_
*7823 _790_
*7824 _2521_
*7825 _2523_
*7826 _791_
*7827 _2522_
*7828 _2523_
*7829 _792_
*7830 _2523_
*7831 _2524_
*7832 _129_
*7833 _2524_
*7834 _3860_
*7835 _793_
*7836 _2525_
*7837 _2533_
*7838 _795_
*7839 _2527_
*7840 _2529_
*7841 _796_
*7842 _2528_
*7843 _2529_
*7844 _798_
*7845 _2530_
*7846 _2532_
*7847 _799_
*7848 _2531_
*7849 _2532_
*7850 _800_
*7851 _2532_
*7852 _2533_
*7853 _130_
*7854 _2533_
*7855 _3861_
*7856 _801_
*7857 _2534_
*7858 _2542_
*7859 _803_
*7860 _2536_
*7861 _2538_
*7862 _804_
*7863 _2537_
*7864 _2538_
*7865 _806_
*7866 _2539_
*7867 _2541_
*7868 _807_
*7869 _2540_
*7870 _2541_
*7871 _808_
*7872 _2541_
*7873 _2542_
*7874 _131_
*7875 _2542_
*7876 _3862_
*7877 _809_
*7878 _2543_
*7879 _2551_
*7880 _811_
*7881 _2545_
*7882 _2547_
*7883 _812_
*7884 _2546_
*7885 _2547_
*7886 _814_
*7887 _2548_
*7888 _2550_
*7889 _815_
*7890 _2549_
*7891 _2550_
*7892 _816_
*7893 _2550_
*7894 _2551_
*7895 _132_
*7896 _2551_
*7897 _3863_
*7898 _817_
*7899 _2552_
*7900 _2560_
*7901 _819_
*7902 _2554_
*7903 _2556_
*7904 _820_
*7905 _2555_
*7906 _2556_
*7907 _822_
*7908 _2557_
*7909 _2559_
*7910 _823_
*7911 _2558_
*7912 _2559_
*7913 _824_
*7914 _2559_
*7915 _2560_
*7916 _133_
*7917 _2560_
*7918 _3864_
*7919 _825_
*7920 _2561_
*7921 _2569_
*7922 _827_
*7923 _2563_
*7924 _2565_
*7925 _828_
*7926 _2564_
*7927 _2565_
*7928 _830_
*7929 _2566_
*7930 _2568_
*7931 _831_
*7932 _2567_
*7933 _2568_
*7934 _832_
*7935 _2568_
*7936 _2569_
*7937 _134_
*7938 _2569_
*7939 _3865_
*7940 _833_
*7941 _2570_
*7942 _2578_
*7943 _835_
*7944 _2572_
*7945 _2574_
*7946 _836_
*7947 _2573_
*7948 _2574_
*7949 _838_
*7950 _2575_
*7951 _2577_
*7952 _839_
*7953 _2576_
*7954 _2577_
*7955 _840_
*7956 _2577_
*7957 _2578_
*7958 _135_
*7959 _2578_
*7960 _3866_
*7961 _841_
*7962 _2579_
*7963 _2587_
*7964 _843_
*7965 _2581_
*7966 _2583_
*7967 _844_
*7968 _2582_
*7969 _2583_
*7970 _846_
*7971 _2584_
*7972 _2586_
*7973 _847_
*7974 _2585_
*7975 _2586_
*7976 _848_
*7977 _2586_
*7978 _2587_
*7979 _136_
*7980 _2587_
*7981 _3867_
*7982 _849_
*7983 _2588_
*7984 _2596_
*7985 _851_
*7986 _2590_
*7987 _2592_
*7988 _852_
*7989 _2591_
*7990 _2592_
*7991 _854_
*7992 _2593_
*7993 _2595_
*7994 _855_
*7995 _2594_
*7996 _2595_
*7997 _856_
*7998 _2595_
*7999 _2596_
*8000 _137_
*8001 _2596_
*8002 _3868_
*8003 _857_
*8004 _2597_
*8005 _2605_
*8006 _859_
*8007 _2599_
*8008 _2601_
*8009 _860_
*8010 _2600_
*8011 _2601_
*8012 _862_
*8013 _2602_
*8014 _2604_
*8015 _863_
*8016 _2603_
*8017 _2604_
*8018 _864_
*8019 _2604_
*8020 _2605_
*8021 _138_
*8022 _2605_
*8023 _3869_
*8024 _865_
*8025 _2606_
*8026 _2614_
*8027 _867_
*8028 _2608_
*8029 _2610_
*8030 _868_
*8031 _2609_
*8032 _2610_
*8033 _870_
*8034 _2611_
*8035 _2613_
*8036 _871_
*8037 _2612_
*8038 _2613_
*8039 _872_
*8040 _2613_
*8041 _2614_
*8042 _139_
*8043 _2614_
*8044 _3870_
*8045 _873_
*8046 _2615_
*8047 _2623_
*8048 _875_
*8049 _2617_
*8050 _2619_
*8051 _876_
*8052 _2618_
*8053 _2619_
*8054 _878_
*8055 _2620_
*8056 _2622_
*8057 _879_
*8058 _2621_
*8059 _2622_
*8060 _880_
*8061 _2622_
*8062 _2623_
*8063 _140_
*8064 _2623_
*8065 _3871_
*8066 _881_
*8067 _2624_
*8068 _2632_
*8069 _883_
*8070 _2626_
*8071 _2628_
*8072 _884_
*8073 _2627_
*8074 _2628_
*8075 _886_
*8076 _2629_
*8077 _2631_
*8078 _887_
*8079 _2630_
*8080 _2631_
*8081 _888_
*8082 _2631_
*8083 _2632_
*8084 _141_
*8085 _2632_
*8086 _3872_
*8087 _889_
*8088 _2633_
*8089 _2641_
*8090 _891_
*8091 _2635_
*8092 _2637_
*8093 _892_
*8094 _2636_
*8095 _2637_
*8096 _894_
*8097 _2638_
*8098 _2640_
*8099 _895_
*8100 _2639_
*8101 _2640_
*8102 _896_
*8103 _2640_
*8104 _2641_
*8105 _142_
*8106 _2641_
*8107 _3873_
*8108 _897_
*8109 _2642_
*8110 _2650_
*8111 _899_
*8112 _2644_
*8113 _2646_
*8114 _900_
*8115 _2645_
*8116 _2646_
*8117 _902_
*8118 _2647_
*8119 _2649_
*8120 _903_
*8121 _2648_
*8122 _2649_
*8123 _904_
*8124 _2649_
*8125 _2650_
*8126 _143_
*8127 _2650_
*8128 _3874_
*8129 _905_
*8130 _2651_
*8131 _2659_
*8132 _907_
*8133 _2653_
*8134 _2655_
*8135 _908_
*8136 _2654_
*8137 _2655_
*8138 _910_
*8139 _2656_
*8140 _2658_
*8141 _911_
*8142 _2657_
*8143 _2658_
*8144 _912_
*8145 _2658_
*8146 _2659_
*8147 _144_
*8148 _2659_
*8149 _3875_
*8150 _913_
*8151 _2660_
*8152 _2668_
*8153 _915_
*8154 _2662_
*8155 _2664_
*8156 _916_
*8157 _2663_
*8158 _2664_
*8159 _918_
*8160 _2665_
*8161 _2667_
*8162 _919_
*8163 _2666_
*8164 _2667_
*8165 _920_
*8166 _2667_
*8167 _2668_
*8168 _145_
*8169 _2668_
*8170 _3876_
*8171 _921_
*8172 _2669_
*8173 _2677_
*8174 _923_
*8175 _2671_
*8176 _2673_
*8177 _924_
*8178 _2672_
*8179 _2673_
*8180 _926_
*8181 _2674_
*8182 _2676_
*8183 _927_
*8184 _2675_
*8185 _2676_
*8186 _928_
*8187 _2676_
*8188 _2677_
*8189 _146_
*8190 _2677_
*8191 _3877_
*8192 _929_
*8193 _2678_
*8194 _2686_
*8195 _931_
*8196 _2680_
*8197 _2682_
*8198 _932_
*8199 _2681_
*8200 _2682_
*8201 _934_
*8202 _2683_
*8203 _2685_
*8204 _935_
*8205 _2684_
*8206 _2685_
*8207 _936_
*8208 _2685_
*8209 _2686_
*8210 _147_
*8211 _2686_
*8212 _3878_
*8213 _937_
*8214 _2687_
*8215 _2695_
*8216 _939_
*8217 _2689_
*8218 _2691_
*8219 _940_
*8220 _2690_
*8221 _2691_
*8222 _942_
*8223 _2692_
*8224 _2694_
*8225 _943_
*8226 _2693_
*8227 _2694_
*8228 _944_
*8229 _2694_
*8230 _2695_
*8231 _148_
*8232 _2695_
*8233 _3879_
*8234 _945_
*8235 _2696_
*8236 _2704_
*8237 _947_
*8238 _2698_
*8239 _2700_
*8240 _948_
*8241 _2699_
*8242 _2700_
*8243 _950_
*8244 _2701_
*8245 _2703_
*8246 _951_
*8247 _2702_
*8248 _2703_
*8249 _952_
*8250 _2703_
*8251 _2704_
*8252 _149_
*8253 _2704_
*8254 _3880_
*8255 _953_
*8256 _2705_
*8257 _2713_
*8258 _955_
*8259 _2707_
*8260 _2709_
*8261 _956_
*8262 _2708_
*8263 _2709_
*8264 _958_
*8265 _2710_
*8266 _2712_
*8267 _959_
*8268 _2711_
*8269 _2712_
*8270 _960_
*8271 _2712_
*8272 _2713_
*8273 _150_
*8274 _2713_
*8275 _3881_
*8276 _961_
*8277 _2714_
*8278 _2722_
*8279 _963_
*8280 _2716_
*8281 _2718_
*8282 _964_
*8283 _2717_
*8284 _2718_
*8285 _966_
*8286 _2719_
*8287 _2721_
*8288 _967_
*8289 _2720_
*8290 _2721_
*8291 _968_
*8292 _2721_
*8293 _2722_
*8294 _151_
*8295 _2722_
*8296 _3882_
*8297 _969_
*8298 _2723_
*8299 _2731_
*8300 _971_
*8301 _2725_
*8302 _2727_
*8303 _972_
*8304 _2726_
*8305 _2727_
*8306 _974_
*8307 _2728_
*8308 _2730_
*8309 _975_
*8310 _2729_
*8311 _2730_
*8312 _976_
*8313 _2730_
*8314 _2731_
*8315 _152_
*8316 _2731_
*8317 _3883_
*8318 _977_
*8319 _2732_
*8320 _2740_
*8321 _979_
*8322 _2734_
*8323 _2736_
*8324 _980_
*8325 _2735_
*8326 _2736_
*8327 _982_
*8328 _2737_
*8329 _2739_
*8330 _983_
*8331 _2738_
*8332 _2739_
*8333 _984_
*8334 _2739_
*8335 _2740_
*8336 _153_
*8337 _2740_
*8338 _3884_
*8339 _985_
*8340 _2741_
*8341 _2749_
*8342 _987_
*8343 _2743_
*8344 _2745_
*8345 _988_
*8346 _2744_
*8347 _2745_
*8348 _990_
*8349 _2746_
*8350 _2748_
*8351 _991_
*8352 _2747_
*8353 _2748_
*8354 _992_
*8355 _2748_
*8356 _2749_
*8357 _154_
*8358 _2749_
*8359 _3885_
*8360 _993_
*8361 _2750_
*8362 _2758_
*8363 _995_
*8364 _2752_
*8365 _2754_
*8366 _996_
*8367 _2753_
*8368 _2754_
*8369 _998_
*8370 _2755_
*8371 _2757_
*8372 _999_
*8373 _2756_
*8374 _2757_
*8375 _1000_
*8376 _2757_
*8377 _2758_
*8378 _155_
*8379 _2758_
*8380 _3886_
*8381 _1001_
*8382 _2759_
*8383 _2767_
*8384 _1003_
*8385 _2761_
*8386 _2763_
*8387 _1004_
*8388 _2762_
*8389 _2763_
*8390 _1006_
*8391 _2764_
*8392 _2766_
*8393 _1007_
*8394 _2765_
*8395 _2766_
*8396 _1008_
*8397 _2766_
*8398 _2767_
*8399 _156_
*8400 _2767_
*8401 _3887_
*8402 _1009_
*8403 _2768_
*8404 _2776_
*8405 _1011_
*8406 _2770_
*8407 _2772_
*8408 _1012_
*8409 _2771_
*8410 _2772_
*8411 _1014_
*8412 _2773_
*8413 _2775_
*8414 _1015_
*8415 _2774_
*8416 _2775_
*8417 _1016_
*8418 _2775_
*8419 _2776_
*8420 _157_
*8421 _2776_
*8422 _3888_
*8423 _1017_
*8424 _2777_
*8425 _2785_
*8426 _1019_
*8427 _2779_
*8428 _2781_
*8429 _1020_
*8430 _2780_
*8431 _2781_
*8432 _1022_
*8433 _2782_
*8434 _2784_
*8435 _1023_
*8436 _2783_
*8437 _2784_
*8438 _1024_
*8439 _2784_
*8440 _2785_
*8441 _158_
*8442 _2785_
*8443 _3889_
*8444 _1025_
*8445 _2786_
*8446 _2794_
*8447 _1027_
*8448 _2788_
*8449 _2790_
*8450 _1028_
*8451 _2789_
*8452 _2790_
*8453 _1030_
*8454 _2791_
*8455 _2793_
*8456 _1031_
*8457 _2792_
*8458 _2793_
*8459 _1032_
*8460 _2793_
*8461 _2794_
*8462 _159_
*8463 _2794_
*8464 _3890_
*8465 _1033_
*8466 _2795_
*8467 _2803_
*8468 _1035_
*8469 _2797_
*8470 _2799_
*8471 _1036_
*8472 _2798_
*8473 _2799_
*8474 _1038_
*8475 _2800_
*8476 _2802_
*8477 _1039_
*8478 _2801_
*8479 _2802_
*8480 _1040_
*8481 _2802_
*8482 _2803_
*8483 _160_
*8484 _2803_
*8485 _3891_
*8486 _1041_
*8487 _2804_
*8488 _2812_
*8489 _1043_
*8490 _2806_
*8491 _2808_
*8492 _1044_
*8493 _2807_
*8494 _2808_
*8495 _1046_
*8496 _2809_
*8497 _2811_
*8498 _1047_
*8499 _2810_
*8500 _2811_
*8501 _1048_
*8502 _2811_
*8503 _2812_
*8504 _161_
*8505 _2812_
*8506 _3892_
*8507 _1049_
*8508 _2813_
*8509 _2821_
*8510 _1051_
*8511 _2815_
*8512 _2817_
*8513 _1052_
*8514 _2816_
*8515 _2817_
*8516 _1054_
*8517 _2818_
*8518 _2820_
*8519 _1055_
*8520 _2819_
*8521 _2820_
*8522 _1056_
*8523 _2820_
*8524 _2821_
*8525 _162_
*8526 _2821_
*8527 _3893_
*8528 _1057_
*8529 _2822_
*8530 _2830_
*8531 _1059_
*8532 _2824_
*8533 _2826_
*8534 _1060_
*8535 _2825_
*8536 _2826_
*8537 _1062_
*8538 _2827_
*8539 _2829_
*8540 _1063_
*8541 _2828_
*8542 _2829_
*8543 _1064_
*8544 _2829_
*8545 _2830_
*8546 _163_
*8547 _2830_
*8548 _3894_
*8549 _1065_
*8550 _2831_
*8551 _2839_
*8552 _1067_
*8553 _2833_
*8554 _2835_
*8555 _1068_
*8556 _2834_
*8557 _2835_
*8558 _1070_
*8559 _2836_
*8560 _2838_
*8561 _1071_
*8562 _2837_
*8563 _2838_
*8564 _1072_
*8565 _2838_
*8566 _2839_
*8567 _164_
*8568 _2839_
*8569 _3895_
*8570 _1073_
*8571 _2840_
*8572 _2848_
*8573 _1075_
*8574 _2842_
*8575 _2844_
*8576 _1076_
*8577 _2843_
*8578 _2844_
*8579 _1078_
*8580 _2845_
*8581 _2847_
*8582 _1079_
*8583 _2846_
*8584 _2847_
*8585 _1080_
*8586 _2847_
*8587 _2848_
*8588 _165_
*8589 _2848_
*8590 _3896_
*8591 _1081_
*8592 _2849_
*8593 _2857_
*8594 _1083_
*8595 _2851_
*8596 _2853_
*8597 _1084_
*8598 _2852_
*8599 _2853_
*8600 _1086_
*8601 _2854_
*8602 _2856_
*8603 _1087_
*8604 _2855_
*8605 _2856_
*8606 _1088_
*8607 _2856_
*8608 _2857_
*8609 _166_
*8610 _2857_
*8611 _3897_
*8612 _1089_
*8613 _2858_
*8614 _2866_
*8615 _1091_
*8616 _2860_
*8617 _2862_
*8618 _1092_
*8619 _2861_
*8620 _2862_
*8621 _1094_
*8622 _2863_
*8623 _2865_
*8624 _1095_
*8625 _2864_
*8626 _2865_
*8627 _1096_
*8628 _2865_
*8629 _2866_
*8630 _167_
*8631 _2866_
*8632 _3898_
*8633 _1097_
*8634 _2867_
*8635 _2875_
*8636 _1099_
*8637 _2869_
*8638 _2871_
*8639 _1100_
*8640 _2870_
*8641 _2871_
*8642 _1102_
*8643 _2872_
*8644 _2874_
*8645 _1103_
*8646 _2873_
*8647 _2874_
*8648 _1104_
*8649 _2874_
*8650 _2875_
*8651 _168_
*8652 _2875_
*8653 _3899_
*8654 _1105_
*8655 _2876_
*8656 _2884_
*8657 _1107_
*8658 _2878_
*8659 _2880_
*8660 _1108_
*8661 _2879_
*8662 _2880_
*8663 _1110_
*8664 _2881_
*8665 _2883_
*8666 _1111_
*8667 _2882_
*8668 _2883_
*8669 _1112_
*8670 _2883_
*8671 _2884_
*8672 _169_
*8673 _2884_
*8674 _3900_
*8675 _1113_
*8676 _2885_
*8677 _2893_
*8678 _1115_
*8679 _2887_
*8680 _2889_
*8681 _1116_
*8682 _2888_
*8683 _2889_
*8684 _1118_
*8685 _2890_
*8686 _2892_
*8687 _1119_
*8688 _2891_
*8689 _2892_
*8690 _1120_
*8691 _2892_
*8692 _2893_
*8693 _170_
*8694 _2893_
*8695 _3901_
*8696 _1121_
*8697 _2894_
*8698 _2902_
*8699 _1123_
*8700 _2896_
*8701 _2898_
*8702 _1124_
*8703 _2897_
*8704 _2898_
*8705 _1126_
*8706 _2899_
*8707 _2901_
*8708 _1127_
*8709 _2900_
*8710 _2901_
*8711 _1128_
*8712 _2901_
*8713 _2902_
*8714 _171_
*8715 _2902_
*8716 _3902_
*8717 _1129_
*8718 _2903_
*8719 _2911_
*8720 _1131_
*8721 _2905_
*8722 _2907_
*8723 _1132_
*8724 _2906_
*8725 _2907_
*8726 _1134_
*8727 _2908_
*8728 _2910_
*8729 _1135_
*8730 _2909_
*8731 _2910_
*8732 _1136_
*8733 _2910_
*8734 _2911_
*8735 _172_
*8736 _2911_
*8737 _3903_
*8738 _1137_
*8739 _2912_
*8740 _2920_
*8741 _1139_
*8742 _2914_
*8743 _2916_
*8744 _1140_
*8745 _2915_
*8746 _2916_
*8747 _1142_
*8748 _2917_
*8749 _2919_
*8750 _1143_
*8751 _2918_
*8752 _2919_
*8753 _1144_
*8754 _2919_
*8755 _2920_
*8756 _173_
*8757 _2920_
*8758 _3904_
*8759 _1145_
*8760 _2921_
*8761 _2929_
*8762 _1147_
*8763 _2923_
*8764 _2925_
*8765 _1148_
*8766 _2924_
*8767 _2925_
*8768 _1150_
*8769 _2926_
*8770 _2928_
*8771 _1151_
*8772 _2927_
*8773 _2928_
*8774 _1152_
*8775 _2928_
*8776 _2929_
*8777 _174_
*8778 _2929_
*8779 _3905_
*8780 _1153_
*8781 _2930_
*8782 _2938_
*8783 _1155_
*8784 _2932_
*8785 _2934_
*8786 _1156_
*8787 _2933_
*8788 _2934_
*8789 _1158_
*8790 _2935_
*8791 _2937_
*8792 _1159_
*8793 _2936_
*8794 _2937_
*8795 _1160_
*8796 _2937_
*8797 _2938_
*8798 _175_
*8799 _2938_
*8800 _3906_
*8801 _1161_
*8802 _2939_
*8803 _2947_
*8804 _1163_
*8805 _2941_
*8806 _2943_
*8807 _1164_
*8808 _2942_
*8809 _2943_
*8810 _1166_
*8811 _2944_
*8812 _2946_
*8813 _1167_
*8814 _2945_
*8815 _2946_
*8816 _1168_
*8817 _2946_
*8818 _2947_
*8819 _176_
*8820 _2947_
*8821 _3907_
*8822 _1169_
*8823 _2948_
*8824 _2956_
*8825 _1171_
*8826 _2950_
*8827 _2952_
*8828 _1172_
*8829 _2951_
*8830 _2952_
*8831 _1174_
*8832 _2953_
*8833 _2955_
*8834 _1175_
*8835 _2954_
*8836 _2955_
*8837 _1176_
*8838 _2955_
*8839 _2956_
*8840 _177_
*8841 _2956_
*8842 _3908_
*8843 _1177_
*8844 _2957_
*8845 _2965_
*8846 _1179_
*8847 _2959_
*8848 _2961_
*8849 _1180_
*8850 _2960_
*8851 _2961_
*8852 _1182_
*8853 _2962_
*8854 _2964_
*8855 _1183_
*8856 _2963_
*8857 _2964_
*8858 _1184_
*8859 _2964_
*8860 _2965_
*8861 _178_
*8862 _2965_
*8863 _3909_
*8864 _1185_
*8865 _2966_
*8866 _2974_
*8867 _1187_
*8868 _2968_
*8869 _2970_
*8870 _1188_
*8871 _2969_
*8872 _2970_
*8873 _1190_
*8874 _2971_
*8875 _2973_
*8876 _1191_
*8877 _2972_
*8878 _2973_
*8879 _1192_
*8880 _2973_
*8881 _2974_
*8882 _179_
*8883 _2974_
*8884 _3910_
*8885 _1193_
*8886 _2975_
*8887 _2983_
*8888 _1195_
*8889 _2977_
*8890 _2979_
*8891 _1196_
*8892 _2978_
*8893 _2979_
*8894 _1198_
*8895 _2980_
*8896 _2982_
*8897 _1199_
*8898 _2981_
*8899 _2982_
*8900 _1200_
*8901 _2982_
*8902 _2983_
*8903 _180_
*8904 _2983_
*8905 _3911_
*8906 _1201_
*8907 _2984_
*8908 _2992_
*8909 _1203_
*8910 _2986_
*8911 _2988_
*8912 _1204_
*8913 _2987_
*8914 _2988_
*8915 _1206_
*8916 _2989_
*8917 _2991_
*8918 _1207_
*8919 _2990_
*8920 _2991_
*8921 _1208_
*8922 _2991_
*8923 _2992_
*8924 _181_
*8925 _2992_
*8926 _3912_
*8927 _1209_
*8928 _2993_
*8929 _3001_
*8930 _1211_
*8931 _2995_
*8932 _2997_
*8933 _1212_
*8934 _2996_
*8935 _2997_
*8936 _1214_
*8937 _2998_
*8938 _3000_
*8939 _1215_
*8940 _2999_
*8941 _3000_
*8942 _1216_
*8943 _3000_
*8944 _3001_
*8945 _182_
*8946 _3001_
*8947 _3913_
*8948 _1217_
*8949 _3002_
*8950 _3010_
*8951 _1219_
*8952 _3004_
*8953 _3006_
*8954 _1220_
*8955 _3005_
*8956 _3006_
*8957 _1222_
*8958 _3007_
*8959 _3009_
*8960 _1223_
*8961 _3008_
*8962 _3009_
*8963 _1224_
*8964 _3009_
*8965 _3010_
*8966 _183_
*8967 _3010_
*8968 _3914_
*8969 _1225_
*8970 _3011_
*8971 _3019_
*8972 _1227_
*8973 _3013_
*8974 _3015_
*8975 _1228_
*8976 _3014_
*8977 _3015_
*8978 _1230_
*8979 _3016_
*8980 _3018_
*8981 _1231_
*8982 _3017_
*8983 _3018_
*8984 _1232_
*8985 _3018_
*8986 _3019_
*8987 _184_
*8988 _3019_
*8989 _3915_
*8990 _1233_
*8991 _3020_
*8992 _3028_
*8993 _1235_
*8994 _3022_
*8995 _3024_
*8996 _1236_
*8997 _3023_
*8998 _3024_
*8999 _1238_
*9000 _3025_
*9001 _3027_
*9002 _1239_
*9003 _3026_
*9004 _3027_
*9005 _1240_
*9006 _3027_
*9007 _3028_
*9008 _185_
*9009 _3028_
*9010 _3916_
*9011 _1241_
*9012 _3029_
*9013 _3037_
*9014 _1243_
*9015 _3031_
*9016 _3033_
*9017 _1244_
*9018 _3032_
*9019 _3033_
*9020 _1246_
*9021 _3034_
*9022 _3036_
*9023 _1247_
*9024 _3035_
*9025 _3036_
*9026 _1248_
*9027 _3036_
*9028 _3037_
*9029 _186_
*9030 _3037_
*9031 _3917_
*9032 _1249_
*9033 _3038_
*9034 _3046_
*9035 _1251_
*9036 _3040_
*9037 _3042_
*9038 _1252_
*9039 _3041_
*9040 _3042_
*9041 _1254_
*9042 _3043_
*9043 _3045_
*9044 _1255_
*9045 _3044_
*9046 _3045_
*9047 _1256_
*9048 _3045_
*9049 _3046_
*9050 _187_
*9051 _3046_
*9052 _3918_
*9053 _1257_
*9054 _3047_
*9055 _3055_
*9056 _1259_
*9057 _3049_
*9058 _3051_
*9059 _1260_
*9060 _3050_
*9061 _3051_
*9062 _1262_
*9063 _3052_
*9064 _3054_
*9065 _1263_
*9066 _3053_
*9067 _3054_
*9068 _1264_
*9069 _3054_
*9070 _3055_
*9071 _188_
*9072 _3055_
*9073 _3919_
*9074 _1265_
*9075 _3056_
*9076 _3064_
*9077 _1267_
*9078 _3058_
*9079 _3060_
*9080 _1268_
*9081 _3059_
*9082 _3060_
*9083 _1270_
*9084 _3061_
*9085 _3063_
*9086 _1271_
*9087 _3062_
*9088 _3063_
*9089 _1272_
*9090 _3063_
*9091 _3064_
*9092 _189_
*9093 _3064_
*9094 _3920_
*9095 _1273_
*9096 _3065_
*9097 _3073_
*9098 _1275_
*9099 _3067_
*9100 _3069_
*9101 _1276_
*9102 _3068_
*9103 _3069_
*9104 _1278_
*9105 _3070_
*9106 _3072_
*9107 _1279_
*9108 _3071_
*9109 _3072_
*9110 _1280_
*9111 _3072_
*9112 _3073_
*9113 _190_
*9114 _3073_
*9115 _3921_
*9116 _1281_
*9117 _3074_
*9118 _3082_
*9119 _1283_
*9120 _3076_
*9121 _3078_
*9122 _1284_
*9123 _3077_
*9124 _3078_
*9125 _1286_
*9126 _3079_
*9127 _3081_
*9128 _1287_
*9129 _3080_
*9130 _3081_
*9131 _1288_
*9132 _3081_
*9133 _3082_
*9134 _191_
*9135 _3082_
*9136 _3922_
*9137 _1289_
*9138 _3083_
*9139 _3091_
*9140 _1291_
*9141 _3085_
*9142 _3087_
*9143 _1292_
*9144 _3086_
*9145 _3087_
*9146 _1294_
*9147 _3088_
*9148 _3090_
*9149 _1295_
*9150 _3089_
*9151 _3090_
*9152 _1296_
*9153 _3090_
*9154 _3091_
*9155 _192_
*9156 _3091_
*9157 _3923_
*9158 _1297_
*9159 _3092_
*9160 _3100_
*9161 _1299_
*9162 _3094_
*9163 _3096_
*9164 _1300_
*9165 _3095_
*9166 _3096_
*9167 _1302_
*9168 _3097_
*9169 _3099_
*9170 _1303_
*9171 _3098_
*9172 _3099_
*9173 _1304_
*9174 _3099_
*9175 _3100_
*9176 _193_
*9177 _3100_
*9178 _3924_
*9179 _1305_
*9180 _3101_
*9181 _3109_
*9182 data_in_reg[96]
*9183 _4060_
*9184 _3103_
*9185 _1308_
*9186 _3104_
*9187 _3105_
*9188 _1310_
*9189 _3106_
*9190 _3108_
*9191 _1311_
*9192 _3107_
*9193 _3108_
*9194 _1312_
*9195 _3108_
*9196 _3109_
*9197 _194_
*9198 _3109_
*9199 _3925_
*9200 data_in_reg[97]
*9201 _4061_
*9202 _3111_
*9203 _1315_
*9204 _3112_
*9205 _3113_
*9206 _1317_
*9207 _3114_
*9208 _3116_
*9209 _1318_
*9210 _3115_
*9211 _3116_
*9212 _1319_
*9213 _3116_
*9214 _3117_
*9215 _195_
*9216 _3117_
*9217 _3926_
*9218 _1320_
*9219 _3118_
*9220 _3126_
*9221 data_in_reg[98]
*9222 _4062_
*9223 _3120_
*9224 _1323_
*9225 _3121_
*9226 _3122_
*9227 _1325_
*9228 _3123_
*9229 _3125_
*9230 _1326_
*9231 _3124_
*9232 _3125_
*9233 _1327_
*9234 _3125_
*9235 _3126_
*9236 _196_
*9237 _3126_
*9238 _3927_
*9239 _1328_
*9240 _3127_
*9241 _3135_
*9242 data_in_reg[99]
*9243 _4063_
*9244 _3129_
*9245 _1331_
*9246 _3130_
*9247 _3131_
*9248 _1333_
*9249 _3132_
*9250 _3134_
*9251 _1334_
*9252 _3133_
*9253 _3134_
*9254 _1335_
*9255 _3134_
*9256 _3135_
*9257 _197_
*9258 _3135_
*9259 _3928_
*9260 _1336_
*9261 _3136_
*9262 _3144_
*9263 data_in_reg[100]
*9264 _4064_
*9265 _3138_
*9266 _1339_
*9267 _3139_
*9268 _3140_
*9269 _1341_
*9270 _3141_
*9271 _3143_
*9272 _1342_
*9273 _3142_
*9274 _3143_
*9275 _1343_
*9276 _3143_
*9277 _3144_
*9278 _198_
*9279 _3144_
*9280 _3929_
*9281 _1344_
*9282 _3145_
*9283 _3153_
*9284 data_in_reg[101]
*9285 _4065_
*9286 _3147_
*9287 _1347_
*9288 _3148_
*9289 _3149_
*9290 _1349_
*9291 _3150_
*9292 _3152_
*9293 _1350_
*9294 _3151_
*9295 _3152_
*9296 _1351_
*9297 _3152_
*9298 _3153_
*9299 _199_
*9300 _3153_
*9301 _3930_
*9302 _1352_
*9303 _3154_
*9304 _3162_
*9305 data_in_reg[102]
*9306 _4066_
*9307 _3156_
*9308 _1355_
*9309 _3157_
*9310 _3158_
*9311 _1357_
*9312 _3159_
*9313 _3161_
*9314 _1358_
*9315 _3160_
*9316 _3161_
*9317 _1359_
*9318 _3161_
*9319 _3162_
*9320 _200_
*9321 _3162_
*9322 _3931_
*9323 _1360_
*9324 _3163_
*9325 _3171_
*9326 data_in_reg[103]
*9327 _4067_
*9328 _3165_
*9329 _1363_
*9330 _3166_
*9331 _3167_
*9332 _1365_
*9333 _3168_
*9334 _3170_
*9335 _1366_
*9336 _3169_
*9337 _3170_
*9338 _1367_
*9339 _3170_
*9340 _3171_
*9341 _201_
*9342 _3171_
*9343 _3932_
*9344 _1368_
*9345 _3172_
*9346 _3180_
*9347 data_in_reg[104]
*9348 _4068_
*9349 _3174_
*9350 _1371_
*9351 _3175_
*9352 _3176_
*9353 _1373_
*9354 _3177_
*9355 _3179_
*9356 _1374_
*9357 _3178_
*9358 _3179_
*9359 _1375_
*9360 _3179_
*9361 _3180_
*9362 _202_
*9363 _3180_
*9364 _3933_
*9365 _1376_
*9366 _3181_
*9367 _3189_
*9368 data_in_reg[105]
*9369 _4069_
*9370 _3183_
*9371 _1379_
*9372 _3184_
*9373 _3185_
*9374 _1381_
*9375 _3186_
*9376 _3188_
*9377 _1382_
*9378 _3187_
*9379 _3188_
*9380 _1383_
*9381 _3188_
*9382 _3189_
*9383 _203_
*9384 _3189_
*9385 _3934_
*9386 _1384_
*9387 _3190_
*9388 _3198_
*9389 data_in_reg[106]
*9390 _4070_
*9391 _3192_
*9392 _1387_
*9393 _3193_
*9394 _3194_
*9395 _1389_
*9396 _3195_
*9397 _3197_
*9398 _1390_
*9399 _3196_
*9400 _3197_
*9401 _1391_
*9402 _3197_
*9403 _3198_
*9404 _204_
*9405 _3198_
*9406 _3935_
*9407 _1392_
*9408 _3199_
*9409 _3207_
*9410 data_in_reg[107]
*9411 _4071_
*9412 _3201_
*9413 _1395_
*9414 _3202_
*9415 _3203_
*9416 _1397_
*9417 _3204_
*9418 _3206_
*9419 _1398_
*9420 _3205_
*9421 _3206_
*9422 _1399_
*9423 _3206_
*9424 _3207_
*9425 _205_
*9426 _3207_
*9427 _3936_
*9428 _1400_
*9429 _3208_
*9430 _3216_
*9431 data_in_reg[108]
*9432 _4072_
*9433 _3210_
*9434 _1403_
*9435 _3211_
*9436 _3212_
*9437 _1405_
*9438 _3213_
*9439 _3215_
*9440 _1406_
*9441 _3214_
*9442 _3215_
*9443 _1407_
*9444 _3215_
*9445 _3216_
*9446 _206_
*9447 _3216_
*9448 _3937_
*9449 _1408_
*9450 _3217_
*9451 _3225_
*9452 data_in_reg[109]
*9453 _4073_
*9454 _3219_
*9455 _1411_
*9456 _3220_
*9457 _3221_
*9458 _1413_
*9459 _3222_
*9460 _3224_
*9461 _1414_
*9462 _3223_
*9463 _3224_
*9464 _1415_
*9465 _3224_
*9466 _3225_
*9467 _207_
*9468 _3225_
*9469 _3938_
*9470 _1416_
*9471 _3226_
*9472 _3234_
*9473 data_in_reg[110]
*9474 _4074_
*9475 _3228_
*9476 _1419_
*9477 _3229_
*9478 _3230_
*9479 _1421_
*9480 _3231_
*9481 _3233_
*9482 _1422_
*9483 _3232_
*9484 _3233_
*9485 _1423_
*9486 _3233_
*9487 _3234_
*9488 _208_
*9489 _3234_
*9490 _3939_
*9491 _1424_
*9492 _3235_
*9493 _3243_
*9494 data_in_reg[111]
*9495 _4075_
*9496 _3237_
*9497 _1427_
*9498 _3238_
*9499 _3239_
*9500 _1429_
*9501 _3240_
*9502 _3242_
*9503 _1430_
*9504 _3241_
*9505 _3242_
*9506 _1431_
*9507 _3242_
*9508 _3243_
*9509 _209_
*9510 _3243_
*9511 _3940_
*9512 _1432_
*9513 _3244_
*9514 _3252_
*9515 data_in_reg[112]
*9516 _4076_
*9517 _3246_
*9518 _1435_
*9519 _3247_
*9520 _3248_
*9521 _1437_
*9522 _3249_
*9523 _3251_
*9524 _1438_
*9525 _3250_
*9526 _3251_
*9527 _1439_
*9528 _3251_
*9529 _3252_
*9530 _210_
*9531 _3252_
*9532 _3941_
*9533 _1440_
*9534 _3253_
*9535 _3261_
*9536 data_in_reg[113]
*9537 _4077_
*9538 _3255_
*9539 _1443_
*9540 _3256_
*9541 _3257_
*9542 _1445_
*9543 _3258_
*9544 _3260_
*9545 _1446_
*9546 _3259_
*9547 _3260_
*9548 _1447_
*9549 _3260_
*9550 _3261_
*9551 _211_
*9552 _3261_
*9553 _3942_
*9554 _1448_
*9555 _3262_
*9556 _3270_
*9557 data_in_reg[114]
*9558 _4078_
*9559 _3264_
*9560 _1451_
*9561 _3265_
*9562 _3266_
*9563 _1453_
*9564 _3267_
*9565 _3269_
*9566 _1454_
*9567 _3268_
*9568 _3269_
*9569 _1455_
*9570 _3269_
*9571 _3270_
*9572 _212_
*9573 _3270_
*9574 _3943_
*9575 _1456_
*9576 _3271_
*9577 _3279_
*9578 data_in_reg[115]
*9579 _4079_
*9580 _3273_
*9581 _1459_
*9582 _3274_
*9583 _3275_
*9584 _1461_
*9585 _3276_
*9586 _3278_
*9587 _1462_
*9588 _3277_
*9589 _3278_
*9590 _1463_
*9591 _3278_
*9592 _3279_
*9593 _213_
*9594 _3279_
*9595 _3944_
*9596 _1464_
*9597 _3280_
*9598 _3288_
*9599 data_in_reg[116]
*9600 _4080_
*9601 _3282_
*9602 _1467_
*9603 _3283_
*9604 _3284_
*9605 _1469_
*9606 _3285_
*9607 _3287_
*9608 _1470_
*9609 _3286_
*9610 _3287_
*9611 _1471_
*9612 _3287_
*9613 _3288_
*9614 _214_
*9615 _3288_
*9616 _3945_
*9617 _1472_
*9618 _3289_
*9619 _3297_
*9620 data_in_reg[117]
*9621 _4081_
*9622 _3291_
*9623 _1475_
*9624 _3292_
*9625 _3293_
*9626 _1477_
*9627 _3294_
*9628 _3296_
*9629 _1478_
*9630 _3295_
*9631 _3296_
*9632 _1479_
*9633 _3296_
*9634 _3297_
*9635 _215_
*9636 _3297_
*9637 _3946_
*9638 _1480_
*9639 _3298_
*9640 _3306_
*9641 data_in_reg[118]
*9642 _4082_
*9643 _3300_
*9644 _1483_
*9645 _3301_
*9646 _3302_
*9647 _1485_
*9648 _3303_
*9649 _3305_
*9650 _1486_
*9651 _3304_
*9652 _3305_
*9653 _1487_
*9654 _3305_
*9655 _3306_
*9656 _216_
*9657 _3306_
*9658 _3947_
*9659 _1488_
*9660 _3307_
*9661 _3315_
*9662 data_in_reg[119]
*9663 _4083_
*9664 _3309_
*9665 _1491_
*9666 _3310_
*9667 _3311_
*9668 _1493_
*9669 _3312_
*9670 _3314_
*9671 _1494_
*9672 _3313_
*9673 _3314_
*9674 _1495_
*9675 _3314_
*9676 _3315_
*9677 _217_
*9678 _3315_
*9679 _3948_
*9680 _1496_
*9681 _3316_
*9682 _3324_
*9683 data_in_reg[120]
*9684 _4084_
*9685 _3318_
*9686 _1499_
*9687 _3319_
*9688 _3320_
*9689 _1501_
*9690 _3321_
*9691 _3323_
*9692 _1502_
*9693 _3322_
*9694 _3323_
*9695 _1503_
*9696 _3323_
*9697 _3324_
*9698 _218_
*9699 _3324_
*9700 _3949_
*9701 _1504_
*9702 _3325_
*9703 _3333_
*9704 data_in_reg[121]
*9705 _4085_
*9706 _3327_
*9707 _1507_
*9708 _3328_
*9709 _3329_
*9710 _1509_
*9711 _3330_
*9712 _3332_
*9713 _1510_
*9714 _3331_
*9715 _3332_
*9716 _1511_
*9717 _3332_
*9718 _3333_
*9719 _219_
*9720 _3333_
*9721 _3950_
*9722 _1512_
*9723 _3334_
*9724 _3342_
*9725 data_in_reg[122]
*9726 _4086_
*9727 _3336_
*9728 _1515_
*9729 _3337_
*9730 _3338_
*9731 _1517_
*9732 _3339_
*9733 _3341_
*9734 _1518_
*9735 _3340_
*9736 _3341_
*9737 _1519_
*9738 _3341_
*9739 _3342_
*9740 _220_
*9741 _3342_
*9742 _3951_
*9743 _1520_
*9744 _3343_
*9745 _3351_
*9746 data_in_reg[123]
*9747 _4087_
*9748 _3345_
*9749 _1523_
*9750 _3346_
*9751 _3347_
*9752 _1525_
*9753 _3348_
*9754 _3350_
*9755 _1526_
*9756 _3349_
*9757 _3350_
*9758 _1527_
*9759 _3350_
*9760 _3351_
*9761 _221_
*9762 _3351_
*9763 _3952_
*9764 _1528_
*9765 _3352_
*9766 _3360_
*9767 data_in_reg[124]
*9768 _4088_
*9769 _3354_
*9770 _1531_
*9771 _3355_
*9772 _3356_
*9773 _1533_
*9774 _3357_
*9775 _3359_
*9776 _1534_
*9777 _3358_
*9778 _3359_
*9779 _1535_
*9780 _3359_
*9781 _3360_
*9782 _222_
*9783 _3360_
*9784 _3953_
*9785 _1536_
*9786 _3361_
*9787 _3369_
*9788 data_in_reg[125]
*9789 _4089_
*9790 _3363_
*9791 _1539_
*9792 _3364_
*9793 _3365_
*9794 _1541_
*9795 _3366_
*9796 _3368_
*9797 _1542_
*9798 _3367_
*9799 _3368_
*9800 _1543_
*9801 _3368_
*9802 _3369_
*9803 _223_
*9804 _3369_
*9805 _3954_
*9806 _1544_
*9807 _3370_
*9808 _3378_
*9809 data_in_reg[126]
*9810 _4090_
*9811 _3372_
*9812 _1547_
*9813 _3373_
*9814 _3374_
*9815 _1549_
*9816 _3375_
*9817 _3377_
*9818 _1550_
*9819 _3376_
*9820 _3377_
*9821 _1551_
*9822 _3377_
*9823 _3378_
*9824 _224_
*9825 _3378_
*9826 _3955_
*9827 _1552_
*9828 _3379_
*9829 _3387_
*9830 data_in_reg[127]
*9831 _4091_
*9832 _3381_
*9833 _1555_
*9834 _3382_
*9835 _3383_
*9836 _1557_
*9837 _3384_
*9838 _3386_
*9839 _1558_
*9840 _3385_
*9841 _3386_
*9842 _1559_
*9843 _3386_
*9844 _3387_
*9845 _225_
*9846 _3387_
*9847 _3956_
*9848 _1561_
*9849 _3389_
*9850 _3390_
*9851 _1562_
*9852 _3390_
*9853 _3391_
*9854 _226_
*9855 _3391_
*9856 _3958_
*9857 _1563_
*9858 _3392_
*9859 _3393_
*9860 _1564_
*9861 _3393_
*9862 _3394_
*9863 _227_
*9864 _3394_
*9865 _3959_
*9866 _1565_
*9867 _3395_
*9868 _3400_
*9869 _1567_
*9870 _3397_
*9871 _3400_
*9872 _228_
*9873 _3400_
*9874 _3960_
*9875 _1570_
*9876 _3401_
*9877 _3402_
*9878 _229_
*9879 _3402_
*9880 _3961_
*9881 _1571_
*9882 _3403_
*9883 _3404_
*9884 _230_
*9885 _3404_
*9886 _3962_
*9887 _1574_
*9888 _3407_
*9889 _3408_
*9890 _231_
*9891 _3408_
*9892 _3963_
*9893 _1575_
*9894 _3409_
*9895 _3410_
*9896 _232_
*9897 _3410_
*9898 _3964_
*9899 _1576_
*9900 _3411_
*9901 _3412_
*9902 _233_
*9903 _3412_
*9904 _3965_
*9905 _1577_
*9906 _3413_
*9907 _3414_
*9908 _234_
*9909 _3414_
*9910 _3966_
*9911 _1578_
*9912 _3415_
*9913 _3416_
*9914 _235_
*9915 _3416_
*9916 _3967_
*9917 _1579_
*9918 _3417_
*9919 _3418_
*9920 _236_
*9921 _3418_
*9922 _3968_
*9923 _1580_
*9924 _3419_
*9925 _3420_
*9926 _237_
*9927 _3420_
*9928 _3969_
*9929 _1581_
*9930 _3421_
*9931 _3422_
*9932 _238_
*9933 _3422_
*9934 _3970_
*9935 _1582_
*9936 _3423_
*9937 _3424_
*9938 _239_
*9939 _3424_
*9940 _3971_
*9941 _1583_
*9942 _3425_
*9943 _3426_
*9944 _240_
*9945 _3426_
*9946 _3972_
*9947 _1584_
*9948 _3427_
*9949 _3428_
*9950 _241_
*9951 _3428_
*9952 _3973_
*9953 _1585_
*9954 _3429_
*9955 _3430_
*9956 _242_
*9957 _3430_
*9958 _3974_
*9959 _1586_
*9960 _3431_
*9961 _3432_
*9962 _243_
*9963 _3432_
*9964 _3975_
*9965 _1587_
*9966 _3433_
*9967 _3434_
*9968 _244_
*9969 _3434_
*9970 _3976_
*9971 _1588_
*9972 _3435_
*9973 _3436_
*9974 _245_
*9975 _3436_
*9976 _3977_
*9977 _1589_
*9978 _3437_
*9979 _3438_
*9980 _246_
*9981 _3438_
*9982 _3978_
*9983 _1590_
*9984 _3439_
*9985 _3440_
*9986 _247_
*9987 _3440_
*9988 _3979_
*9989 _1591_
*9990 _3441_
*9991 _3442_
*9992 _248_
*9993 _3442_
*9994 _3980_
*9995 _1592_
*9996 _3443_
*9997 _3444_
*9998 _249_
*9999 _3444_
*10000 _3981_
*10001 _1593_
*10002 _3445_
*10003 _3446_
*10004 _250_
*10005 _3446_
*10006 _3982_
*10007 _1594_
*10008 _3447_
*10009 _3448_
*10010 _251_
*10011 _3448_
*10012 _3983_
*10013 _1595_
*10014 _3449_
*10015 _3450_
*10016 _252_
*10017 _3450_
*10018 _3984_
*10019 _1596_
*10020 _3451_
*10021 _3452_
*10022 _253_
*10023 _3452_
*10024 _3985_
*10025 _1597_
*10026 _3453_
*10027 _3454_
*10028 _254_
*10029 _3454_
*10030 _3986_
*10031 _1598_
*10032 _3455_
*10033 _3456_
*10034 _255_
*10035 _3456_
*10036 _3987_
*10037 _1599_
*10038 _3457_
*10039 _3458_
*10040 _256_
*10041 _3458_
*10042 _3988_
*10043 _1600_
*10044 _3459_
*10045 _3460_
*10046 _257_
*10047 _3460_
*10048 _3989_
*10049 _1601_
*10050 _3461_
*10051 _3462_
*10052 _258_
*10053 _3462_
*10054 _3990_
*10055 _1602_
*10056 _3463_
*10057 _3464_
*10058 _259_
*10059 _3464_
*10060 _3991_
*10061 _1603_
*10062 _3465_
*10063 _3466_
*10064 _260_
*10065 _3466_
*10066 _3992_
*10067 _1604_
*10068 _3467_
*10069 _3468_
*10070 _261_
*10071 _3468_
*10072 _3993_
*10073 _1605_
*10074 _3469_
*10075 _3470_
*10076 _262_
*10077 _3470_
*10078 _3994_
*10079 _1607_
*10080 _3472_
*10081 _3473_
*10082 _263_
*10083 _3473_
*10084 _3996_
*10085 _1608_
*10086 _3474_
*10087 _3475_
*10088 _264_
*10089 _3475_
*10090 _3997_
*10091 _1609_
*10092 _3476_
*10093 _3477_
*10094 _265_
*10095 _3477_
*10096 _3998_
*10097 _1610_
*10098 _3478_
*10099 _3479_
*10100 _266_
*10101 _3479_
*10102 _3999_
*10103 _1611_
*10104 _3480_
*10105 _3481_
*10106 _267_
*10107 _3481_
*10108 _4000_
*10109 _1612_
*10110 _3482_
*10111 _3483_
*10112 _268_
*10113 _3483_
*10114 _4001_
*10115 _1613_
*10116 _3484_
*10117 _3485_
*10118 _269_
*10119 _3485_
*10120 _4002_
*10121 _1614_
*10122 _3486_
*10123 _3487_
*10124 _270_
*10125 _3487_
*10126 _4003_
*10127 _1615_
*10128 _3488_
*10129 _3489_
*10130 _271_
*10131 _3489_
*10132 _4004_
*10133 _1616_
*10134 _3490_
*10135 _3491_
*10136 _272_
*10137 _3491_
*10138 _4005_
*10139 _1617_
*10140 _3492_
*10141 _3493_
*10142 _273_
*10143 _3493_
*10144 _4006_
*10145 _1618_
*10146 _3494_
*10147 _3495_
*10148 _274_
*10149 _3495_
*10150 _4007_
*10151 _1619_
*10152 _3496_
*10153 _3497_
*10154 _275_
*10155 _3497_
*10156 _4008_
*10157 _1620_
*10158 _3498_
*10159 _3499_
*10160 _276_
*10161 _3499_
*10162 _4009_
*10163 _1621_
*10164 _3500_
*10165 _3501_
*10166 _277_
*10167 _3501_
*10168 _4010_
*10169 _1622_
*10170 _3502_
*10171 _3503_
*10172 _278_
*10173 _3503_
*10174 _4011_
*10175 _1623_
*10176 _3504_
*10177 _3505_
*10178 _279_
*10179 _3505_
*10180 _4012_
*10181 _1624_
*10182 _3506_
*10183 _3507_
*10184 _280_
*10185 _3507_
*10186 _4013_
*10187 _1625_
*10188 _3508_
*10189 _3509_
*10190 _281_
*10191 _3509_
*10192 _4014_
*10193 _1626_
*10194 _3510_
*10195 _3511_
*10196 _282_
*10197 _3511_
*10198 _4015_
*10199 _1627_
*10200 _3512_
*10201 _3513_
*10202 _283_
*10203 _3513_
*10204 _4016_
*10205 _1628_
*10206 _3514_
*10207 _3515_
*10208 _284_
*10209 _3515_
*10210 _4017_
*10211 _1629_
*10212 _3516_
*10213 _3517_
*10214 _285_
*10215 _3517_
*10216 _4018_
*10217 _1630_
*10218 _3518_
*10219 _3519_
*10220 _286_
*10221 _3519_
*10222 _4019_
*10223 _1631_
*10224 _3520_
*10225 _3521_
*10226 _287_
*10227 _3521_
*10228 _4020_
*10229 _1632_
*10230 _3522_
*10231 _3523_
*10232 _288_
*10233 _3523_
*10234 _4021_
*10235 _1633_
*10236 _3524_
*10237 _3525_
*10238 _289_
*10239 _3525_
*10240 _4022_
*10241 _1634_
*10242 _3526_
*10243 _3527_
*10244 _290_
*10245 _3527_
*10246 _4023_
*10247 _1635_
*10248 _3528_
*10249 _3529_
*10250 _291_
*10251 _3529_
*10252 _4024_
*10253 _1636_
*10254 _3530_
*10255 _3531_
*10256 _292_
*10257 _3531_
*10258 _4025_
*10259 _1637_
*10260 _3532_
*10261 _3533_
*10262 _293_
*10263 _3533_
*10264 _4026_
*10265 _1638_
*10266 _3534_
*10267 _3535_
*10268 _294_
*10269 _3535_
*10270 _4027_
*10271 _1640_
*10272 _3537_
*10273 _3538_
*10274 _295_
*10275 _3538_
*10276 _4028_
*10277 _1641_
*10278 _3539_
*10279 _3540_
*10280 _296_
*10281 _3540_
*10282 _4029_
*10283 _1642_
*10284 _3541_
*10285 _3542_
*10286 _297_
*10287 _3542_
*10288 _4030_
*10289 _1643_
*10290 _3543_
*10291 _3544_
*10292 _298_
*10293 _3544_
*10294 _4031_
*10295 _1644_
*10296 _3545_
*10297 _3546_
*10298 _299_
*10299 _3546_
*10300 _4032_
*10301 _1645_
*10302 _3547_
*10303 _3548_
*10304 _300_
*10305 _3548_
*10306 _4033_
*10307 _1646_
*10308 _3549_
*10309 _3550_
*10310 _301_
*10311 _3550_
*10312 _4034_
*10313 _1647_
*10314 _3551_
*10315 _3552_
*10316 _302_
*10317 _3552_
*10318 _4035_
*10319 _1648_
*10320 _3553_
*10321 _3554_
*10322 _303_
*10323 _3554_
*10324 _4036_
*10325 _1649_
*10326 _3555_
*10327 _3556_
*10328 _304_
*10329 _3556_
*10330 _4037_
*10331 _1650_
*10332 _3557_
*10333 _3558_
*10334 _305_
*10335 _3558_
*10336 _4038_
*10337 _1651_
*10338 _3559_
*10339 _3560_
*10340 _306_
*10341 _3560_
*10342 _4039_
*10343 _1652_
*10344 _3561_
*10345 _3562_
*10346 _307_
*10347 _3562_
*10348 _4040_
*10349 _1653_
*10350 _3563_
*10351 _3564_
*10352 _308_
*10353 _3564_
*10354 _4041_
*10355 _1654_
*10356 _3565_
*10357 _3566_
*10358 _309_
*10359 _3566_
*10360 _4042_
*10361 _1655_
*10362 _3567_
*10363 _3568_
*10364 _310_
*10365 _3568_
*10366 _4043_
*10367 _1656_
*10368 _3569_
*10369 _3570_
*10370 _311_
*10371 _3570_
*10372 _4044_
*10373 _1657_
*10374 _3571_
*10375 _3572_
*10376 _312_
*10377 _3572_
*10378 _4045_
*10379 _1658_
*10380 _3573_
*10381 _3574_
*10382 _313_
*10383 _3574_
*10384 _4046_
*10385 _1659_
*10386 _3575_
*10387 _3576_
*10388 _314_
*10389 _3576_
*10390 _4047_
*10391 _1660_
*10392 _3577_
*10393 _3578_
*10394 _315_
*10395 _3578_
*10396 _4048_
*10397 _1661_
*10398 _3579_
*10399 _3580_
*10400 _316_
*10401 _3580_
*10402 _4049_
*10403 _1662_
*10404 _3581_
*10405 _3582_
*10406 _317_
*10407 _3582_
*10408 _4050_
*10409 _1663_
*10410 _3583_
*10411 _3584_
*10412 _318_
*10413 _3584_
*10414 _4051_
*10415 _1664_
*10416 _3585_
*10417 _3586_
*10418 _319_
*10419 _3586_
*10420 _4052_
*10421 _1665_
*10422 _3587_
*10423 _3588_
*10424 _320_
*10425 _3588_
*10426 _4053_
*10427 _1666_
*10428 _3589_
*10429 _3590_
*10430 _321_
*10431 _3590_
*10432 _4054_
*10433 _1667_
*10434 _3591_
*10435 _3592_
*10436 _322_
*10437 _3592_
*10438 _4055_
*10439 _1668_
*10440 _3593_
*10441 _3594_
*10442 _323_
*10443 _3594_
*10444 _4056_
*10445 _1669_
*10446 _3595_
*10447 _3596_
*10448 _324_
*10449 _3596_
*10450 _4057_
*10451 _1670_
*10452 _3597_
*10453 _3598_
*10454 _325_
*10455 _3598_
*10456 _4058_
*10457 _1671_
*10458 _3599_
*10459 _3600_
*10460 _326_
*10461 _3600_
*10462 _4059_
*10463 _1672_
*10464 _3601_
*10465 _3602_
*10466 _1675_
*10467 _3604_
*10468 _3605_
*10469 _327_
*10470 _3605_
*10471 _4060_
*10472 _1676_
*10473 _3606_
*10474 _3607_
*10475 _328_
*10476 _3607_
*10477 _4061_
*10478 _1677_
*10479 _3608_
*10480 _3609_
*10481 _329_
*10482 _3609_
*10483 _4062_
*10484 _1678_
*10485 _3610_
*10486 _3611_
*10487 _330_
*10488 _3611_
*10489 _4063_
*10490 _1679_
*10491 _3612_
*10492 _3613_
*10493 _331_
*10494 _3613_
*10495 _4064_
*10496 _1680_
*10497 _3614_
*10498 _3615_
*10499 _332_
*10500 _3615_
*10501 _4065_
*10502 _1681_
*10503 _3616_
*10504 _3617_
*10505 _333_
*10506 _3617_
*10507 _4066_
*10508 _1682_
*10509 _3618_
*10510 _3619_
*10511 _334_
*10512 _3619_
*10513 _4067_
*10514 _1683_
*10515 _3620_
*10516 _3621_
*10517 _335_
*10518 _3621_
*10519 _4068_
*10520 _1684_
*10521 _3622_
*10522 _3623_
*10523 _336_
*10524 _3623_
*10525 _4069_
*10526 _1685_
*10527 _3624_
*10528 _3625_
*10529 _337_
*10530 _3625_
*10531 _4070_
*10532 _1686_
*10533 _3626_
*10534 _3627_
*10535 _338_
*10536 _3627_
*10537 _4071_
*10538 _1687_
*10539 _3628_
*10540 _3629_
*10541 _339_
*10542 _3629_
*10543 _4072_
*10544 _1688_
*10545 _3630_
*10546 _3631_
*10547 _340_
*10548 _3631_
*10549 _4073_
*10550 _1689_
*10551 _3632_
*10552 _3633_
*10553 _341_
*10554 _3633_
*10555 _4074_
*10556 _1690_
*10557 _3634_
*10558 _3635_
*10559 _342_
*10560 _3635_
*10561 _4075_
*10562 _1691_
*10563 _3636_
*10564 _3637_
*10565 _343_
*10566 _3637_
*10567 _4076_
*10568 _1692_
*10569 _3638_
*10570 _3639_
*10571 _344_
*10572 _3639_
*10573 _4077_
*10574 _1693_
*10575 _3640_
*10576 _3641_
*10577 _345_
*10578 _3641_
*10579 _4078_
*10580 _1694_
*10581 _3642_
*10582 _3643_
*10583 _346_
*10584 _3643_
*10585 _4079_
*10586 _1695_
*10587 _3644_
*10588 _3645_
*10589 _347_
*10590 _3645_
*10591 _4080_
*10592 _1696_
*10593 _3646_
*10594 _3647_
*10595 _348_
*10596 _3647_
*10597 _4081_
*10598 _1697_
*10599 _3648_
*10600 _3649_
*10601 _349_
*10602 _3649_
*10603 _4082_
*10604 _1698_
*10605 _3650_
*10606 _3651_
*10607 _350_
*10608 _3651_
*10609 _4083_
*10610 _1699_
*10611 _3652_
*10612 _3653_
*10613 _351_
*10614 _3653_
*10615 _4084_
*10616 _1700_
*10617 _3654_
*10618 _3655_
*10619 _352_
*10620 _3655_
*10621 _4085_
*10622 _1701_
*10623 _3656_
*10624 _3657_
*10625 _353_
*10626 _3657_
*10627 _4086_
*10628 _1702_
*10629 _3658_
*10630 _3659_
*10631 _354_
*10632 _3659_
*10633 _4087_
*10634 _1703_
*10635 _3660_
*10636 _3661_
*10637 _355_
*10638 _3661_
*10639 _4088_
*10640 _1704_
*10641 _3662_
*10642 _3663_
*10643 _356_
*10644 _3663_
*10645 _4089_
*10646 _1705_
*10647 _3664_
*10648 _3665_
*10649 _357_
*10650 _3665_
*10651 _4090_
*10652 _1706_
*10653 _3666_
*10654 _3667_
*10655 _358_
*10656 _3667_
*10657 _4091_
*10658 _1708_
*10659 _3669_
*10660 _3670_
*10661 _359_
*10662 _3670_
*10663 _4092_
*10664 _1709_
*10665 _3671_
*10666 _3672_
*10667 _360_
*10668 _3672_
*10669 _4093_
*10670 _1710_
*10671 _3673_
*10672 _3674_
*10673 _361_
*10674 _3674_
*10675 _4094_
*10676 _1711_
*10677 _3675_
*10678 _3676_
*10679 _362_
*10680 _3676_
*10681 _4095_
*10682 _1712_
*10683 _3677_
*10684 _3678_
*10685 _363_
*10686 _3678_
*10687 _4096_
*10688 _1713_
*10689 _3679_
*10690 _3680_
*10691 _364_
*10692 _3680_
*10693 _4097_
*10694 _1714_
*10695 _3681_
*10696 _3682_
*10697 _365_
*10698 _3682_
*10699 _4098_
*10700 _1715_
*10701 _3683_
*10702 _3684_
*10703 _366_
*10704 _3684_
*10705 _4099_
*10706 _1716_
*10707 _3685_
*10708 _3686_
*10709 _367_
*10710 _3686_
*10711 _4100_
*10712 _1717_
*10713 _3687_
*10714 _3688_
*10715 _368_
*10716 _3688_
*10717 _4101_
*10718 _1718_
*10719 _3689_
*10720 _3690_
*10721 _369_
*10722 _3690_
*10723 _4102_
*10724 _1719_
*10725 _3691_
*10726 _3692_
*10727 _370_
*10728 _3692_
*10729 _4103_
*10730 _1720_
*10731 _3693_
*10732 _3694_
*10733 _371_
*10734 _3694_
*10735 _4104_
*10736 _1721_
*10737 _3695_
*10738 _3696_
*10739 _372_
*10740 _3696_
*10741 _4105_
*10742 _1722_
*10743 _3697_
*10744 _3698_
*10745 _373_
*10746 _3698_
*10747 _4106_
*10748 _1723_
*10749 _3699_
*10750 _3700_
*10751 _374_
*10752 _3700_
*10753 _4107_
*10754 _1724_
*10755 _3701_
*10756 _3702_
*10757 _375_
*10758 _3702_
*10759 _4108_
*10760 _1725_
*10761 _3703_
*10762 _3704_
*10763 _376_
*10764 _3704_
*10765 _4109_
*10766 _1726_
*10767 _3705_
*10768 _3706_
*10769 _377_
*10770 _3706_
*10771 _4110_
*10772 _1727_
*10773 _3707_
*10774 _3708_
*10775 _378_
*10776 _3708_
*10777 _4111_
*10778 _1728_
*10779 _3709_
*10780 _3710_
*10781 _379_
*10782 _3710_
*10783 _4112_
*10784 _1729_
*10785 _3711_
*10786 _3712_
*10787 _380_
*10788 _3712_
*10789 _4113_
*10790 _1730_
*10791 _3713_
*10792 _3714_
*10793 _381_
*10794 _3714_
*10795 _4114_
*10796 _1731_
*10797 _3715_
*10798 _3716_
*10799 _382_
*10800 _3716_
*10801 _4115_
*10802 _1732_
*10803 _3717_
*10804 _3718_
*10805 _383_
*10806 _3718_
*10807 _4116_
*10808 _1733_
*10809 _3719_
*10810 _3720_
*10811 _384_
*10812 _3720_
*10813 _4117_
*10814 _1734_
*10815 _3721_
*10816 _3722_
*10817 _385_
*10818 _3722_
*10819 _4118_
*10820 _1735_
*10821 _3723_
*10822 _3724_
*10823 _386_
*10824 _3724_
*10825 _4119_
*10826 _1736_
*10827 _3725_
*10828 _3726_
*10829 _387_
*10830 _3726_
*10831 _4120_
*10832 _1737_
*10833 _3727_
*10834 _3728_
*10835 _388_
*10836 _3728_
*10837 _4121_
*10838 _1738_
*10839 _3729_
*10840 _3730_
*10841 _389_
*10842 _3730_
*10843 _4122_
*10844 _1739_
*10845 _3731_
*10846 _3732_
*10847 _390_
*10848 _3732_
*10849 _4123_
*10850 prdata[0]
*10851 _4124_
*10852 prdata[1]
*10853 _4125_
*10854 prdata[10]
*10855 _4126_
*10856 prdata[11]
*10857 _4127_
*10858 prdata[12]
*10859 _4128_
*10860 prdata[13]
*10861 _4129_
*10862 prdata[14]
*10863 _4130_
*10864 prdata[15]
*10865 _4131_
*10866 prdata[16]
*10867 _4132_
*10868 prdata[17]
*10869 _4133_
*10870 prdata[18]
*10871 _4134_
*10872 prdata[19]
*10873 _4135_
*10874 prdata[2]
*10875 _4136_
*10876 prdata[20]
*10877 _4137_
*10878 prdata[21]
*10879 _4138_
*10880 prdata[22]
*10881 _4139_
*10882 prdata[23]
*10883 _4140_
*10884 prdata[24]
*10885 _4141_
*10886 prdata[25]
*10887 _4142_
*10888 prdata[26]
*10889 _4143_
*10890 prdata[27]
*10891 _4144_
*10892 prdata[28]
*10893 _4145_
*10894 prdata[29]
*10895 _4146_
*10896 prdata[3]
*10897 _4147_
*10898 prdata[30]
*10899 _4148_
*10900 prdata[31]
*10901 _4149_
*10902 prdata[4]
*10903 _4150_
*10904 prdata[5]
*10905 _4151_
*10906 prdata[6]
*10907 _4152_
*10908 prdata[7]
*10909 _4153_
*10910 prdata[8]
*10911 _4154_
*10912 prdata[9]
*10913 _4155_
*10914 pready
*10915 _4156_
*10916 pslverr
*10917 _4157_

*PORTS
*2026 I
*2061 I
*3211 I
*3217 I
*3230 I
*3255 I
*3299 I
*3303 I
*3976 I
*3979 I
*3994 I
*3997 I
*4052 I
*4067 I
*4074 I
*4081 I
*4088 I
*4095 I
*4102 I
*4109 I
*4116 I
*4123 I
*4130 I
*4137 I
*4144 I
*4151 I
*4158 I
*4165 I
*4172 I
*4179 I
*4186 I
*4193 I
*4200 I
*4207 I
*4214 I
*4221 I
*4228 I
*4235 I
*4242 I
*4249 I
*4256 I
*4263 I
*4270 I
*4277 I
*6573 I
*10850 O
*10852 O
*10854 O
*10856 O
*10858 O
*10860 O
*10862 O
*10864 O
*10866 O
*10868 O
*10870 O
*10872 O
*10874 O
*10876 O
*10878 O
*10880 O
*10882 O
*10884 O
*10886 O
*10888 O
*10890 O
*10892 O
*10894 O
*10896 O
*10898 O
*10900 O
*10902 O
*10904 O
*10906 O
*10908 O
*10910 O
*10912 O
*10914 O
*10916 O

*D_NET *1 0.0107412
*CONN
*I *2:Y O *D _2236
*I *3:A I *L 0
*I *4:A I *L 0
*I *5:A I *L 0
*I *6:A I *L 0
*I *7:A I *L 0
*I *8:A I *L 0
*I *9:A I *L 0
*I *10:A I *L 0
*I *11:A I *L 0
*I *12:A I *L 0
*I *13:A I *L 0
*I *14:A I *L 0
*I *15:A I *L 0
*I *16:A I *L 0
*I *17:A I *L 0
*I *18:A I *L 0
*CAP
1 1_1 0.0011352
2 1_2 0.00076776
3 1_3 0
4 1_4 0.00037824
5 1_5 0.0002652
6 1_6 0.00070272
7 1_7 6.12e-05
8 1_8 0.000432
9 1_9 0
10 1_10 0.00040128
11 1_11 0
12 1_12 0.00039648
13 1_13 0.000384
14 1_14 0.00039648
15 1_15 0.0001824
16 1_16 0.00019488
17 1_17 0.00062112
18 1_18 0.00015624
19 1_19 0.00073056
20 1_20 0.00024192
21 1_21 0.00017496
22 1_22 4.08e-05
23 1_23 0.00084888
24 1_24 2.04e-05
25 1_25 0.00070824
26 1_26 0.00051528
27 1_27 0.00027456
28 1_28 0.0006528
29 1_29 5.76e-05
*RES
1 *2:Y 1_1 21
2 1_1 *3:A 0
3 1_1 1_2 6.39333
4 1_2 1_3 0
5 1_3 *4:A 0
6 1_2 1_4 2.90667
7 1_4 1_5 3.03333
8 1_5 *5:A 0
9 1_4 1_6 16.5867
10 1_6 1_7 0.7
11 1_7 *6:A 0
12 1_6 1_8 9.33333
13 1_8 1_9 0
14 1_9 *7:A 0
15 1_9 1_10 4.74667
16 1_10 1_11 0
17 1_11 *8:A 0
18 1_10 1_12 5.41333
19 1_12 1_13 2.64
20 1_13 *9:A 0
21 1_12 1_14 11.0133
22 1_14 1_15 1.26667
23 1_15 *10:A 0
24 1_14 1_16 5.41333
25 1_16 1_17 5.85333
26 1_17 1_18 2.00667
27 1_18 *11:A 0
28 1_17 1_19 15.2933
29 1_19 1_20 6.72
30 1_20 1_21 4.52667
31 1_21 1_22 0.466667
32 1_22 *12:A 0
33 1_21 1_23 9.11333
34 1_23 1_24 0.233333
35 1_24 *13:A 0
36 1_24 1_25 6.94
37 1_25 *14:A 0
38 1_20 1_26 4.78
39 1_26 *15:A 0
40 1_19 1_27 4.29333
41 1_27 *16:A 0
42 1_16 1_28 4.53333
43 1_28 *17:A 0
44 1_1 1_29 0.373333
45 1_29 *18:A 0
*END
*D_NET *19 0.00399096
*CONN
*I *20:Y O *D BUFX2
*I *21:C I *L 0
*I *22:C I *L 0
*I *23:B I *L 0
*I *24:C I *L 0
*I *25:B I *L 0
*I *26:C I *L 0
*I *27:B I *L 0
*I *28:C I *L 0
*I *29:B I *L 0
*I *30:C I *L 0
*I *31:B I *L 0
*I *32:B I *L 0
*I *33:B I *L 0
*I *34:B I *L 0
*I *35:C I *L 0
*I *36:B I *L 0
*CAP
1 19_1 2.04e-05
2 19_2 0.0001428
3 19_3 2.016e-05
4 19_4 0.0002244
5 19_5 0.0002244
6 19_6 2.04e-05
7 19_7 0.00027168
8 19_8 2.04e-05
9 19_9 0.00025704
10 19_10 2.04e-05
11 19_11 4.92e-05
12 19_12 2.688e-05
13 19_13 0.00016608
14 19_14 0.00014784
15 19_15 0
16 19_16 0.00045984
17 19_17 0.00018144
18 19_18 0
19 19_19 6.768e-05
20 19_20 4.92e-05
21 19_21 0.00016896
22 19_22 2.04e-05
23 19_23 0.00030504
24 19_24 0.00017808
25 19_25 6.12e-05
26 19_26 2.04e-05
27 19_27 0.00027816
28 19_28 0.00019512
29 19_29 0.0001836
30 19_30 0.00020976
*RES
1 *20:Y 19_1 0.233333
2 19_1 19_2 1.63333
3 19_2 19_3 0.56
4 19_3 *21:C 0
5 19_2 19_4 2.56667
6 19_4 19_5 2.56667
7 19_5 19_6 0.233333
8 19_6 *22:C 0
9 19_6 19_7 3.54667
10 19_7 19_8 0.233333
11 19_8 *23:B 0
12 19_8 19_9 2.94
13 19_9 19_10 0.233333
14 19_10 *24:C 0
15 19_10 19_11 0.7
16 19_11 19_12 0.746667
17 19_12 *25:B 0
18 19_11 19_13 2.41333
19 19_13 *26:C 0
20 19_8 19_14 4.10667
21 19_14 19_15 0
22 19_15 *27:B 0
23 19_15 19_16 8.77333
24 19_16 *28:C 0
25 19_4 19_17 5.04
26 19_17 19_18 0
27 19_18 *29:B 0
28 19_17 19_19 1.21333
29 19_19 *30:C 0
30 19_1 19_20 0.7
31 19_20 19_21 3.36
32 19_21 19_22 0.233333
33 19_22 *31:B 0
34 19_22 19_23 4.80667
35 19_23 *32:B 0
36 19_20 19_24 4.94667
37 19_24 19_25 0.7
38 19_25 19_26 0.233333
39 19_26 *33:B 0
40 19_26 19_27 4.06
41 19_27 *34:B 0
42 19_24 19_28 5.08667
43 19_28 19_29 2.1
44 19_29 *35:C 0
45 19_28 19_30 3.82667
46 19_30 *36:B 0
*END
*D_NET *37 0.00413448
*CONN
*I *38:Y O *D BUFX2
*I *39:B I *L 0
*I *40:C I *L 0
*I *41:C I *L 0
*I *42:B I *L 0
*I *43:C I *L 0
*I *44:B I *L 0
*I *45:B I *L 0
*I *46:C I *L 0
*I *47:C I *L 0
*I *48:B I *L 0
*I *49:B I *L 0
*I *50:C I *L 0
*I *51:C I *L 0
*I *52:C I *L 0
*I *53:B I *L 0
*I *54:B I *L 0
*CAP
1 37_1 4.08e-05
2 37_2 4.704e-05
3 37_3 0
4 37_4 0.0002244
5 37_5 2.016e-05
6 37_6 0.00031176
7 37_7 2.04e-05
8 37_8 0.00027816
9 37_9 0.0001584
10 37_10 0.00031224
11 37_11 0.0001632
12 37_12 0.0002292
13 37_13 0
14 37_14 2.016e-05
15 37_15 5.424e-05
16 37_16 0.00042456
17 37_17 2.04e-05
18 37_18 0.00012144
19 37_19 0.0002532
20 37_20 4.704e-05
21 37_21 0.00019512
22 37_22 4.08e-05
23 37_23 0.00056208
24 37_24 0.0002244
25 37_25 2.016e-05
26 37_26 0.00023664
27 37_27 2.04e-05
28 37_28 6.768e-05
29 37_29 2.04e-05
*RES
1 *38:Y 37_1 0.466667
2 37_1 37_2 1.30667
3 37_2 37_3 0
4 37_3 *39:B 0
5 37_3 37_4 2.56667
6 37_4 37_5 0.56
7 37_5 *40:C 0
8 37_4 37_6 4.99333
9 37_6 37_7 0.233333
10 37_7 *41:C 0
11 37_7 37_8 4.06
12 37_8 *42:B 0
13 37_8 37_9 1.02667
14 37_9 *43:C 0
15 37_9 37_10 4.34
16 37_10 37_11 1.86667
17 37_11 *44:B 0
18 37_10 37_12 5.36667
19 37_12 37_13 0
20 37_13 *45:B 0
21 37_12 37_14 0.56
22 37_14 37_15 0.84
23 37_15 *46:C 0
24 37_14 37_16 4.19333
25 37_16 37_17 0.233333
26 37_17 *47:C 0
27 37_17 37_18 2.70667
28 37_18 *48:B 0
29 37_1 37_19 3.03333
30 37_19 37_20 1.30667
31 37_20 *49:B 0
32 37_19 37_21 5.08667
33 37_21 37_22 0.466667
34 37_22 *50:C 0
35 37_21 37_23 7.74667
36 37_23 37_24 2.56667
37 37_24 37_25 0.56
38 37_25 *51:C 0
39 37_24 37_26 2.70667
40 37_26 37_27 0.233333
41 37_27 *52:C 0
42 37_27 37_28 1.21333
43 37_28 *53:B 0
44 37_23 37_29 0.233333
45 37_29 *54:B 0
*END
*D_NET *55 0.00365568
*CONN
*I *56:Y O *D BUFX2
*I *57:B I *L 0
*I *58:B I *L 0
*I *59:B I *L 0
*I *60:C I *L 0
*I *61:C I *L 0
*I *62:B I *L 0
*I *63:C I *L 0
*I *64:B I *L 0
*I *65:B I *L 0
*I *66:C I *L 0
*I *67:B I *L 0
*I *68:C I *L 0
*I *69:C I *L 0
*I *70:C I *L 0
*I *71:B I *L 0
*I *72:C I *L 0
*CAP
1 55_1 0.00027072
2 55_2 2.04e-05
3 55_3 0.0001008
4 55_4 0.0002448
5 55_5 2.04e-05
6 55_6 0.000258
7 55_7 2.04e-05
8 55_8 4.704e-05
9 55_9 4.08e-05
10 55_10 2.688e-05
11 55_11 0.00012768
12 55_12 4.08e-05
13 55_13 2.688e-05
14 55_14 0
15 55_15 0.00024456
16 55_16 2.04e-05
17 55_17 0.00011472
18 55_18 0.0002016
19 55_19 0.00014784
20 55_20 0
21 55_21 6.72e-05
22 55_22 4.08e-05
23 55_23 0.0003024
24 55_24 0.0002112
25 55_25 0.00017424
26 55_26 0.0001344
27 55_27 0.00024216
28 55_28 4.08e-05
29 55_29 0.00021648
30 55_30 0.000102
31 55_31 0.00014928
*RES
1 *56:Y 55_1 4.85333
2 55_1 55_2 0.233333
3 55_2 *57:B 0
4 55_2 55_3 2.8
5 55_3 55_4 2.8
6 55_4 55_5 0.233333
7 55_5 *58:B 0
8 55_5 55_6 3.5
9 55_6 55_7 0.233333
10 55_7 *59:B 0
11 55_7 55_8 1.30667
12 55_8 55_9 0.466667
13 55_9 *60:C 0
14 55_8 55_10 0.746667
15 55_10 55_11 3.54667
16 55_11 55_12 0.466667
17 55_12 *61:C 0
18 55_11 55_13 0.746667
19 55_13 55_14 0
20 55_14 *62:B 0
21 55_13 55_15 3.12667
22 55_15 55_16 0.233333
23 55_16 *63:C 0
24 55_16 55_17 2.52
25 55_17 *64:B 0
26 55_10 55_18 1.4
27 55_18 55_19 4.10667
28 55_19 55_20 0
29 55_20 *65:B 0
30 55_19 55_21 1.86667
31 55_21 55_22 0.466667
32 55_22 *66:C 0
33 55_21 55_23 4.2
34 55_23 *67:B 0
35 55_18 55_24 1.46667
36 55_24 55_25 2.37333
37 55_25 *68:C 0
38 55_24 55_26 3.73333
39 55_26 *69:C 0
40 55_3 55_27 6.39333
41 55_27 55_28 0.466667
42 55_28 *70:C 0
43 55_27 55_29 4.01333
44 55_29 55_30 1.16667
45 55_30 *71:B 0
46 55_29 55_31 2.14667
47 55_31 *72:C 0
*END
*D_NET *73 0.00392496
*CONN
*I *74:Y O *D BUFX2
*I *75:C I *L 0
*I *76:C I *L 0
*I *77:B I *L 0
*I *78:C I *L 0
*I *79:B I *L 0
*I *80:B I *L 0
*I *81:C I *L 0
*I *82:B I *L 0
*I *83:C I *L 0
*I *84:B I *L 0
*I *85:B I *L 0
*I *86:C I *L 0
*I *87:B I *L 0
*I *88:C I *L 0
*I *89:C I *L 0
*I *90:B I *L 0
*CAP
1 73_1 7.8e-05
2 73_2 0.0001836
3 73_3 2.04e-05
4 73_4 0.0003528
5 73_5 4.704e-05
6 73_6 2.04e-05
7 73_7 6.12e-05
8 73_8 0.0002412
9 73_9 0.00014184
10 73_10 0.0002412
11 73_11 0.0001284
12 73_12 0
13 73_13 0.00011424
14 73_14 4.08e-05
15 73_15 2.016e-05
16 73_16 6.72e-05
17 73_17 0
18 73_18 0.00021552
19 73_19 5.76e-05
20 73_20 0.0002244
21 73_21 0.0004284
22 73_22 2.04e-05
23 73_23 0.000258
24 73_24 0
25 73_25 0.00029784
26 73_26 6.12e-05
27 73_27 0.0001488
28 73_28 2.04e-05
29 73_29 0.00022344
30 73_30 8.16e-05
31 73_31 0.00012888
*RES
1 *74:Y 73_1 0.606667
2 73_1 73_2 2.1
3 73_2 73_3 0.233333
4 73_3 *75:C 0
5 73_3 73_4 5.13333
6 73_4 73_5 1.30667
7 73_5 73_6 0.233333
8 73_6 73_7 0.7
9 73_7 *76:C 0
10 73_6 73_8 2.47333
11 73_8 *77:B 0
12 73_5 73_9 2.94
13 73_9 *78:C 0
14 73_4 73_10 2.47333
15 73_10 *79:B 0
16 73_1 73_11 2.56667
17 73_11 73_12 0
18 73_12 *80:B 0
19 73_11 73_13 3.17333
20 73_13 73_14 0.466667
21 73_14 *81:C 0
22 73_13 73_15 0.56
23 73_15 73_16 1.86667
24 73_16 73_17 0
25 73_17 *82:B 0
26 73_16 73_18 5.32
27 73_18 73_19 0.373333
28 73_19 *83:C 0
29 73_18 73_20 2.56667
30 73_20 *84:B 0
31 73_15 73_21 4.9
32 73_21 73_22 0.233333
33 73_22 *85:B 0
34 73_22 73_23 3.5
35 73_23 73_24 0
36 73_24 *86:C 0
37 73_24 73_25 5.27333
38 73_25 73_26 0.7
39 73_26 *87:B 0
40 73_25 73_27 2.8
41 73_27 73_28 0.233333
42 73_28 *88:C 0
43 73_28 73_29 3.87333
44 73_29 73_30 0.933333
45 73_30 *89:C 0
46 73_29 73_31 1.91333
47 73_31 *90:B 0
*END
*D_NET *91 0.00465912
*CONN
*I *92:Y O *D BUFX2
*I *93:B I *L 0
*I *94:C I *L 0
*I *95:C I *L 0
*I *96:B I *L 0
*I *97:C I *L 0
*I *98:B I *L 0
*I *99:C I *L 0
*I *100:B I *L 0
*I *101:C I *L 0
*I *102:B I *L 0
*I *103:C I *L 0
*I *104:B I *L 0
*I *105:C I *L 0
*I *106:B I *L 0
*I *107:C I *L 0
*I *108:C I *L 0
*CAP
1 91_1 2.04e-05
2 91_2 0.00039984
3 91_3 0.0001272
4 91_4 2.016e-05
5 91_5 0
6 91_6 0.00019008
7 91_7 6.12e-05
8 91_8 2.688e-05
9 91_9 4.08e-05
10 91_10 0.00055152
11 91_11 2.016e-05
12 91_12 0
13 91_13 0.0009036
14 91_14 5.76e-05
15 91_15 0.0001296
16 91_16 0.00026448
17 91_17 9.84e-05
18 91_18 8.064e-05
19 91_19 0
20 91_20 6.768e-05
21 91_21 0.00020208
22 91_22 8.16e-05
23 91_23 4.728e-05
24 91_24 6.12e-05
25 91_25 0.0002844
26 91_26 0.0002244
27 91_27 0.00014112
28 91_28 5.76e-05
29 91_29 0.0001764
30 91_30 2.04e-05
31 91_31 0.0003024
*RES
1 *92:Y 91_1 0.233333
2 91_1 91_2 4.57333
3 91_2 91_3 1.02667
4 91_3 *93:B 0
5 91_2 91_4 0.56
6 91_4 91_5 0
7 91_5 *94:C 0
8 91_4 91_6 3.28
9 91_6 91_7 0.7
10 91_7 *95:C 0
11 91_6 91_8 0.746667
12 91_8 91_9 0.466667
13 91_9 *96:B 0
14 91_8 91_10 7.65333
15 91_10 91_11 0.56
16 91_11 91_12 0
17 91_12 *97:C 0
18 91_11 91_13 14
19 91_13 91_14 0.373333
20 91_14 *98:B 0
21 91_13 91_15 0.84
22 91_15 *99:C 0
23 91_10 91_16 4.01333
24 91_16 91_17 0.84
25 91_17 *100:B 0
26 91_16 91_18 2.24
27 91_18 91_19 0
28 91_19 *101:C 0
29 91_18 91_20 1.21333
30 91_20 *102:B 0
31 91_1 91_21 4.94667
32 91_21 91_22 0.933333
33 91_22 *103:C 0
34 91_21 91_23 0.98
35 91_23 91_24 0.7
36 91_24 *104:B 0
37 91_23 91_25 4.9
38 91_25 91_26 2.56667
39 91_26 *105:C 0
40 91_25 91_27 3.92
41 91_27 91_28 0.373333
42 91_28 *106:B 0
43 91_27 91_29 2.56667
44 91_29 91_30 0.233333
45 91_30 *107:C 0
46 91_30 91_31 5.26667
47 91_31 *108:C 0
*END
*D_NET *109 0.00285528
*CONN
*I *110:Y O *D BUFX2
*I *111:B I *L 0
*I *112:B I *L 0
*I *113:C I *L 0
*I *114:B I *L 0
*I *115:C I *L 0
*I *116:B I *L 0
*I *117:B I *L 0
*I *118:C I *L 0
*I *119:C I *L 0
*I *120:C I *L 0
*I *121:C I *L 0
*I *122:C I *L 0
*I *123:C I *L 0
*I *124:B I *L 0
*I *125:B I *L 0
*I *126:B I *L 0
*CAP
1 109_1 5.424e-05
2 109_2 1.344e-05
3 109_3 1.344e-05
4 109_4 0.0004284
5 109_5 2.04e-05
6 109_6 0.00014784
7 109_7 4.08e-05
8 109_8 2.688e-05
9 109_9 0
10 109_10 6.72e-05
11 109_11 0.0002244
12 109_12 2.016e-05
13 109_13 0.00014784
14 109_14 0
15 109_15 4.032e-05
16 109_16 0
17 109_17 0.00025128
18 109_18 0.00012576
19 109_19 0.0002196
20 109_20 2.688e-05
21 109_21 0.00021744
22 109_22 2.04e-05
23 109_23 0.00021504
24 109_24 0
25 109_25 3.36e-05
26 109_26 0
27 109_27 4.728e-05
28 109_28 4.08e-05
29 109_29 0.00025704
30 109_30 2.04e-05
31 109_31 0.0001344
*RES
1 *110:Y 109_1 0.84
2 109_1 109_2 0.373333
3 109_2 109_3 0.373333
4 109_3 *111:B 0
5 109_2 109_4 4.9
6 109_4 109_5 0.233333
7 109_5 *112:B 0
8 109_5 109_6 4.10667
9 109_6 109_7 0.466667
10 109_7 *113:C 0
11 109_6 109_8 0.746667
12 109_8 109_9 0
13 109_9 *114:B 0
14 109_8 109_10 1.86667
15 109_10 109_11 2.56667
16 109_11 *115:C 0
17 109_10 109_12 0.56
18 109_12 109_13 4.10667
19 109_13 109_14 0
20 109_14 *116:B 0
21 109_13 109_15 1.12
22 109_15 109_16 0
23 109_16 *117:B 0
24 109_16 109_17 3.31333
25 109_17 *118:C 0
26 109_12 109_18 1.29333
27 109_18 *119:C 0
28 109_1 109_19 1.7
29 109_19 109_20 0.746667
30 109_20 *120:C 0
31 109_19 109_21 2.70667
32 109_21 109_22 0.233333
33 109_22 *121:C 0
34 109_22 109_23 5.97333
35 109_23 109_24 0
36 109_24 *122:C 0
37 109_23 109_25 0.933333
38 109_25 109_26 0
39 109_26 *123:C 0
40 109_25 109_27 0.98
41 109_27 109_28 0.466667
42 109_28 *124:B 0
43 109_27 109_29 2.94
44 109_29 109_30 0.233333
45 109_30 *125:B 0
46 109_30 109_31 3.73333
47 109_31 *126:B 0
*END
*D_NET *127 0.00445728
*CONN
*I *128:Y O *D BUFX2
*I *129:C I *L 0
*I *130:B I *L 0
*I *131:C I *L 0
*I *132:B I *L 0
*I *133:C I *L 0
*I *134:C I *L 0
*I *135:B I *L 0
*I *136:C I *L 0
*I *137:B I *L 0
*I *138:B I *L 0
*I *139:C I *L 0
*I *140:B I *L 0
*I *141:B I *L 0
*I *142:C I *L 0
*I *143:C I *L 0
*I *144:B I *L 0
*CAP
1 127_1 6.048e-05
2 127_2 6.12e-05
3 127_3 4.704e-05
4 127_4 0.0001836
5 127_5 7.416e-05
6 127_6 6.12e-05
7 127_7 0.00021624
8 127_8 2.04e-05
9 127_9 0.00031728
10 127_10 0.0001428
11 127_11 2.04e-05
12 127_12 0.00066504
13 127_13 2.04e-05
14 127_14 4.08e-05
15 127_15 0.000204
16 127_16 5.76e-05
17 127_17 0.000318
18 127_18 6.12e-05
19 127_19 4.728e-05
20 127_20 8.16e-05
21 127_21 0.00029136
22 127_22 2.04e-05
23 127_23 0.00054936
24 127_24 8.4e-06
25 127_25 2.688e-05
26 127_26 0.00012768
27 127_27 0
28 127_28 0.000258
29 127_29 0.00019608
30 127_30 4.08e-05
31 127_31 0.0002376
*RES
1 *128:Y 127_1 1.68
2 127_1 127_2 0.7
3 127_2 *129:C 0
4 127_1 127_3 1.30667
5 127_3 127_4 2.1
6 127_4 *130:B 0
7 127_3 127_5 1.72667
8 127_5 127_6 0.7
9 127_6 *131:C 0
10 127_5 127_7 2.47333
11 127_7 127_8 0.233333
12 127_8 *132:B 0
13 127_8 127_9 6.81333
14 127_9 127_10 1.63333
15 127_10 127_11 0.233333
16 127_11 *133:C 0
17 127_11 127_12 7.60667
18 127_12 127_13 0.233333
19 127_13 *134:C 0
20 127_13 127_14 0.466667
21 127_14 127_15 2.33333
22 127_15 127_16 0.373333
23 127_16 *135:B 0
24 127_15 127_17 5.83333
25 127_17 127_18 0.7
26 127_18 *136:C 0
27 127_17 127_19 0.98
28 127_19 127_20 0.933333
29 127_20 *137:B 0
30 127_19 127_21 4.76
31 127_21 127_22 0.233333
32 127_22 *138:B 0
33 127_22 127_23 8.26
34 127_23 *139:C 0
35 127_14 127_24 0.233333
36 127_24 127_25 0.746667
37 127_25 *140:B 0
38 127_24 127_26 3.54667
39 127_26 127_27 0
40 127_27 *141:B 0
41 127_27 127_28 3.5
42 127_28 *142:C 0
43 127_9 127_29 3.78
44 127_29 127_30 0.466667
45 127_30 *143:C 0
46 127_29 127_31 3.26667
47 127_31 *144:B 0
*END
*D_NET *145 0.00403032
*CONN
*I *146:Y O *D BUFX2
*I *147:C I *L 0
*I *148:C I *L 0
*I *149:B I *L 0
*I *150:B I *L 0
*I *151:C I *L 0
*I *152:B I *L 0
*I *153:C I *L 0
*I *154:B I *L 0
*I *155:B I *L 0
*I *156:B I *L 0
*I *157:B I *L 0
*I *158:C I *L 0
*I *159:B I *L 0
*I *160:C I *L 0
*I *161:B I *L 0
*I *162:B I *L 0
*CAP
1 145_1 2.04e-05
2 145_2 7.44e-05
3 145_3 8.4e-06
4 145_4 0
5 145_5 0.00052968
6 145_6 2.04e-05
7 145_7 6.768e-05
8 145_8 0
9 145_9 0.0001896
10 145_10 0.000102
11 145_11 2.688e-05
12 145_12 0.0001224
13 145_13 0.0002568
14 145_14 2.04e-05
15 145_15 6.768e-05
16 145_16 5.04e-05
17 145_17 0.000204
18 145_18 0.000204
19 145_19 6.048e-05
20 145_20 0
21 145_21 4.704e-05
22 145_22 0
23 145_23 0.00016824
24 145_24 0.0002244
25 145_25 0.00024336
26 145_26 0.0001596
27 145_27 0.0001428
28 145_28 2.04e-05
29 145_29 0.0001308
30 145_30 0.00018288
31 145_31 0.0006852
*RES
1 *146:Y 145_1 0.233333
2 145_1 145_2 1.4
3 145_2 145_3 0.233333
4 145_3 145_4 0
5 145_4 *147:C 0
6 145_4 145_5 7.04667
7 145_5 145_6 0.233333
8 145_6 *148:C 0
9 145_6 145_7 1.21333
10 145_7 145_8 0
11 145_8 *149:B 0
12 145_8 145_9 3.26667
13 145_9 145_10 1.16667
14 145_10 *150:B 0
15 145_9 145_11 0.746667
16 145_11 145_12 1.4
17 145_12 *151:C 0
18 145_11 145_13 5.13333
19 145_13 145_14 0.233333
20 145_14 *152:B 0
21 145_14 145_15 1.21333
22 145_15 *153:C 0
23 145_3 145_16 1.4
24 145_16 *154:B 0
25 145_1 145_17 2.33333
26 145_17 145_18 2.33333
27 145_18 *155:B 0
28 145_17 145_19 1.68
29 145_19 145_20 0
30 145_20 *156:B 0
31 145_19 145_21 1.30667
32 145_21 145_22 0
33 145_22 *157:B 0
34 145_21 145_23 4.34
35 145_23 145_24 2.56667
36 145_24 *158:C 0
37 145_23 145_25 4.76
38 145_25 145_26 1.54
39 145_26 *159:B 0
40 145_25 145_27 1.63333
41 145_27 145_28 0.233333
42 145_28 *160:C 0
43 145_28 145_29 1.63333
44 145_29 145_30 3.08
45 145_30 *161:B 0
46 145_29 145_31 10.0333
47 145_31 *162:B 0
*END
*D_NET *163 0.00381096
*CONN
*I *164:Y O *D BUFX2
*I *165:C I *L 0
*I *166:C I *L 0
*I *167:B I *L 0
*I *168:C I *L 0
*I *169:B I *L 0
*I *170:C I *L 0
*I *171:B I *L 0
*I *172:C I *L 0
*I *173:C I *L 0
*I *174:B I *L 0
*I *175:C I *L 0
*I *176:B I *L 0
*I *177:B I *L 0
*I *178:C I *L 0
*I *179:C I *L 0
*I *180:B I *L 0
*CAP
1 163_1 4.08e-05
2 163_2 5.76e-05
3 163_3 2.688e-05
4 163_4 0.00027816
5 163_5 4.08e-05
6 163_6 2.04e-05
7 163_7 0.00041952
8 163_8 0.00043152
9 163_9 5.76e-05
10 163_10 9.456e-05
11 163_11 0
12 163_12 0.00038136
13 163_13 5.76e-05
14 163_14 0.0002244
15 163_15 4.032e-05
16 163_16 0
17 163_17 9.744e-05
18 163_18 4.08e-05
19 163_19 0.00011496
20 163_20 0.00026496
21 163_21 0
22 163_22 0.0002244
23 163_23 5.76e-05
24 163_24 9.408e-05
25 163_25 0
26 163_26 6.768e-05
27 163_27 2.04e-05
28 163_28 0.00027792
29 163_29 0
30 163_30 0.0003792
*RES
1 *164:Y 163_1 0.466667
2 163_1 163_2 0.373333
3 163_2 *165:C 0
4 163_1 163_3 0.746667
5 163_3 *166:C 0
6 163_1 163_4 4.06
7 163_4 163_5 0.466667
8 163_5 163_6 0.233333
9 163_6 *167:B 0
10 163_6 163_7 7.65333
11 163_7 *168:C 0
12 163_4 163_8 8.12
13 163_8 163_9 0.373333
14 163_9 *169:B 0
15 163_8 163_10 1.96
16 163_10 163_11 0
17 163_11 *170:C 0
18 163_10 163_12 3.52667
19 163_12 163_13 0.373333
20 163_13 *171:B 0
21 163_12 163_14 2.56667
22 163_14 163_15 1.12
23 163_15 163_16 0
24 163_16 *172:C 0
25 163_15 163_17 2.70667
26 163_17 163_18 0.466667
27 163_18 *173:C 0
28 163_17 163_19 2.19333
29 163_19 *174:B 0
30 163_14 163_20 3.36
31 163_20 163_21 0
32 163_21 *175:C 0
33 163_21 163_22 2.56667
34 163_22 163_23 0.373333
35 163_23 *176:B 0
36 163_22 163_24 2.61333
37 163_24 163_25 0
38 163_25 *177:B 0
39 163_24 163_26 1.21333
40 163_26 163_27 0.233333
41 163_27 *178:C 0
42 163_27 163_28 4.38667
43 163_28 163_29 0
44 163_29 *179:C 0
45 163_29 163_30 6.53333
46 163_30 *180:B 0
*END
*D_NET *181 0.00403848
*CONN
*I *182:Y O *D BUFX2
*I *183:B I *L 0
*I *184:C I *L 0
*I *185:B I *L 0
*I *186:B I *L 0
*I *187:B I *L 0
*I *188:B I *L 0
*I *189:C I *L 0
*I *190:C I *L 0
*I *191:B I *L 0
*I *192:C I *L 0
*I *193:B I *L 0
*I *194:B I *L 0
*I *195:C I *L 0
*I *196:C I *L 0
*I *197:B I *L 0
*I *198:C I *L 0
*CAP
1 181_1 0
2 181_2 2.688e-05
3 181_3 6.12e-05
4 181_4 2.016e-05
5 181_5 0.00012192
6 181_6 0.000204
7 181_7 0.00018864
8 181_8 2.04e-05
9 181_9 0.00022848
10 181_10 2.688e-05
11 181_11 0
12 181_12 0.00061152
13 181_13 6.12e-05
14 181_14 0.00010152
15 181_15 0.0002244
16 181_16 2.04e-05
17 181_17 0.00013152
18 181_18 0.0003672
19 181_19 9.84e-05
20 181_20 3.36e-05
21 181_21 0
22 181_22 0.000102
23 181_23 0.00027072
24 181_24 0.0003108
25 181_25 0.00012192
26 181_26 0
27 181_27 0.000204
28 181_28 0.00018216
29 181_29 0.000102
30 181_30 0.00019656
*RES
1 *182:Y 181_1 0
2 181_1 181_2 0.746667
3 181_2 181_3 0.7
4 181_3 *183:B 0
5 181_2 181_4 0.56
6 181_4 181_5 2.05333
7 181_5 181_6 2.33333
8 181_6 *184:C 0
9 181_5 181_7 4.57333
10 181_7 181_8 0.233333
11 181_8 *185:B 0
12 181_8 181_9 6.34667
13 181_9 181_10 0.746667
14 181_10 181_11 0
15 181_11 *186:B 0
16 181_10 181_12 7.65333
17 181_12 181_13 0.7
18 181_13 *187:B 0
19 181_12 181_14 1.82
20 181_14 *188:B 0
21 181_9 181_15 2.56667
22 181_15 181_16 0.233333
23 181_16 *189:C 0
24 181_16 181_17 2.42667
25 181_17 *190:C 0
26 181_4 181_18 4.2
27 181_18 181_19 0.84
28 181_19 *191:B 0
29 181_18 181_20 0.933333
30 181_20 181_21 0
31 181_21 *192:C 0
32 181_21 181_22 1.16667
33 181_22 181_23 4.85333
34 181_23 *193:B 0
35 181_22 181_24 6.3
36 181_24 *194:B 0
37 181_1 181_25 2.05333
38 181_25 181_26 0
39 181_26 *195:C 0
40 181_26 181_27 2.33333
41 181_27 *196:C 0
42 181_1 181_28 4.06
43 181_28 181_29 1.16667
44 181_29 *197:B 0
45 181_28 181_30 3.12667
46 181_30 *198:C 0
*END
*D_NET *199 0.00476256
*CONN
*I *200:Y O *D BUFX2
*I *201:B I *L 0
*I *202:C I *L 0
*I *203:B I *L 0
*I *204:C I *L 0
*I *205:C I *L 0
*I *206:B I *L 0
*I *207:B I *L 0
*I *208:C I *L 0
*I *209:B I *L 0
*I *210:C I *L 0
*I *211:C I *L 0
*I *212:C I *L 0
*I *213:B I *L 0
*I *214:C I *L 0
*I *215:B I *L 0
*I *216:C I *L 0
*CAP
1 199_1 2.04e-05
2 199_2 0.00019584
3 199_3 2.04e-05
4 199_4 0.000306
5 199_5 0.00023688
6 199_6 0.00045024
7 199_7 0.00012888
8 199_8 4.08e-05
9 199_9 2.688e-05
10 199_10 0.0001716
11 199_11 1.344e-05
12 199_12 0
13 199_13 2.688e-05
14 199_14 4.08e-05
15 199_15 0.00014832
16 199_16 2.04e-05
17 199_17 0.0001584
18 199_18 6.048e-05
19 199_19 7.392e-05
20 199_20 0.00022272
21 199_21 0
22 199_22 0.00064776
23 199_23 2.04e-05
24 199_24 0.0002304
25 199_25 0.00017568
26 199_26 5.76e-05
27 199_27 0.00084768
28 199_28 2.04e-05
29 199_29 8.112e-05
30 199_30 0.00031824
*RES
1 *200:Y 199_1 0.233333
2 199_1 199_2 2.24
3 199_2 199_3 0.233333
4 199_3 *201:B 0
5 199_3 199_4 3.5
6 199_4 199_5 4.24667
7 199_5 *202:C 0
8 199_4 199_6 12.5067
9 199_6 199_7 1.91333
10 199_7 199_8 0.466667
11 199_8 *203:B 0
12 199_7 199_9 0.746667
13 199_9 *204:C 0
14 199_6 199_10 1.36667
15 199_10 199_11 0.373333
16 199_11 199_12 0
17 199_12 *205:C 0
18 199_11 199_13 0.746667
19 199_13 199_14 0.466667
20 199_14 *206:B 0
21 199_13 199_15 3.45333
22 199_15 199_16 0.233333
23 199_16 *207:B 0
24 199_16 199_17 1.02667
25 199_17 *208:C 0
26 199_16 199_18 1.68
27 199_18 *209:B 0
28 199_10 199_19 2.05333
29 199_19 *210:C 0
30 199_1 199_20 4.85333
31 199_20 199_21 0
32 199_21 *211:C 0
33 199_20 199_22 14.3267
34 199_22 199_23 0.233333
35 199_23 *212:C 0
36 199_23 199_24 3.73333
37 199_24 199_25 3.54667
38 199_25 199_26 0.373333
39 199_26 *213:B 0
40 199_25 199_27 12.88
41 199_27 199_28 0.233333
42 199_28 *214:C 0
43 199_28 199_29 1.58667
44 199_29 *215:B 0
45 199_24 199_30 3.64
46 199_30 *216:C 0
*END
*D_NET *217 0.00418704
*CONN
*I *218:Y O *D BUFX2
*I *219:B I *L 0
*I *220:B I *L 0
*I *221:C I *L 0
*I *222:B I *L 0
*I *223:C I *L 0
*I *224:C I *L 0
*I *225:B I *L 0
*I *226:C I *L 0
*I *227:B I *L 0
*I *228:B I *L 0
*I *229:C I *L 0
*I *230:C I *L 0
*I *231:C I *L 0
*I *232:B I *L 0
*I *233:C I *L 0
*I *234:B I *L 0
*CAP
1 217_1 0.00031128
2 217_2 2.04e-05
3 217_3 0.00038568
4 217_4 8.4e-06
5 217_5 0
6 217_6 0.00068544
7 217_7 6.72e-05
8 217_8 2.04e-05
9 217_9 0.0002244
10 217_10 9.84e-05
11 217_11 5.376e-05
12 217_12 5.76e-05
13 217_13 0.0004284
14 217_14 4.032e-05
15 217_15 0
16 217_16 6.768e-05
17 217_17 0.00071976
18 217_18 5.76e-05
19 217_19 4.92e-05
20 217_20 2.688e-05
21 217_21 9.84e-05
22 217_22 3.36e-05
23 217_23 5.376e-05
24 217_24 0
25 217_25 5.76e-05
26 217_26 5.376e-05
27 217_27 0.0002244
28 217_28 0.0002016
29 217_29 0.00014112
*RES
1 *218:Y 217_1 5.64667
2 217_1 217_2 0.233333
3 217_2 *219:B 0
4 217_2 217_3 7.04667
5 217_3 217_4 0.233333
6 217_4 217_5 0
7 217_5 *220:B 0
8 217_5 217_6 7.84
9 217_6 *221:C 0
10 217_4 217_7 1.86667
11 217_7 217_8 0.233333
12 217_8 217_9 2.56667
13 217_9 217_10 0.84
14 217_10 *222:B 0
15 217_9 217_11 1.49333
16 217_11 *223:C 0
17 217_11 217_12 0.373333
18 217_12 *224:C 0
19 217_8 217_13 4.9
20 217_13 217_14 1.12
21 217_14 217_15 0
22 217_15 *225:B 0
23 217_14 217_16 1.21333
24 217_16 *226:C 0
25 217_13 217_17 9.66
26 217_17 217_18 0.373333
27 217_18 *227:B 0
28 217_17 217_19 0.7
29 217_19 217_20 0.746667
30 217_20 217_21 0.84
31 217_21 *228:B 0
32 217_20 217_22 0.933333
33 217_22 *229:C 0
34 217_19 217_23 1.49333
35 217_23 217_24 0
36 217_24 *230:C 0
37 217_24 217_25 0.373333
38 217_25 *231:C 0
39 217_23 217_26 1.49333
40 217_26 217_27 2.56667
41 217_27 *232:B 0
42 217_26 217_28 5.6
43 217_28 *233:C 0
44 217_7 217_29 3.92
45 217_29 *234:B 0
*END
*D_NET *235 0.00476856
*CONN
*I *236:Y O *D BUFX2
*I *237:B I *L 0
*I *238:B I *L 0
*I *239:B I *L 0
*I *240:C I *L 0
*I *241:C I *L 0
*I *242:C I *L 0
*I *243:B I *L 0
*I *244:C I *L 0
*I *245:B I *L 0
*I *246:B I *L 0
*I *247:B I *L 0
*I *248:C I *L 0
*I *249:B I *L 0
*I *250:C I *L 0
*I *251:C I *L 0
*I *252:B I *L 0
*CAP
1 235_1 0.00024864
2 235_2 0.00010128
3 235_3 5.76e-05
4 235_4 0.0001836
5 235_5 0.0002652
6 235_6 3.36e-05
7 235_7 0.00046104
8 235_8 0.00020832
9 235_9 0.00016992
10 235_10 4.8e-05
11 235_11 0.000354
12 235_12 2.04e-05
13 235_13 3.36e-05
14 235_14 0.00031008
15 235_15 0.0002688
16 235_16 0.000102
17 235_17 5.76e-05
18 235_18 0.00040704
19 235_19 0.000306
20 235_20 2.04e-05
21 235_21 0.0001152
22 235_22 4.92e-05
23 235_23 4.704e-05
24 235_24 0.000276
25 235_25 0.00018936
26 235_26 0.00036696
27 235_27 4.08e-05
28 235_28 2.688e-05
*RES
1 *236:Y 235_1 6.90667
2 235_1 235_2 2.14667
3 235_2 235_3 0.373333
4 235_3 *237:B 0
5 235_2 235_4 2.1
6 235_4 235_5 3.03333
7 235_5 235_6 0.933333
8 235_6 *238:B 0
9 235_5 235_7 5.27333
10 235_7 *239:B 0
11 235_4 235_8 5.78667
12 235_8 235_9 2.72
13 235_9 235_10 0.333333
14 235_10 *240:C 0
15 235_9 235_11 5.9
16 235_11 235_12 0.233333
17 235_12 *241:C 0
18 235_12 235_13 0.933333
19 235_13 *242:C 0
20 235_12 235_14 3.54667
21 235_14 *243:B 0
22 235_8 235_15 1.86667
23 235_15 *244:C 0
24 235_1 235_16 1.16667
25 235_16 235_17 0.373333
26 235_17 *245:B 0
27 235_16 235_18 5.97333
28 235_18 235_19 3.5
29 235_19 235_20 0.233333
30 235_20 *246:B 0
31 235_20 235_21 0.746667
32 235_21 *247:B 0
33 235_20 235_22 0.7
34 235_22 235_23 1.30667
35 235_23 *248:C 0
36 235_22 235_24 7
37 235_24 *249:B 0
38 235_18 235_25 3.59333
39 235_25 *250:C 0
40 235_1 235_26 4.52667
41 235_26 235_27 0.466667
42 235_27 *251:C 0
43 235_26 235_28 0.746667
44 235_28 *252:B 0
*END
*D_NET *253 0.00605808
*CONN
*I *254:Y O *D BUFX2
*I *255:C I *L 0
*I *256:B I *L 0
*I *257:C I *L 0
*I *258:B I *L 0
*I *259:C I *L 0
*I *260:C I *L 0
*I *261:C I *L 0
*I *262:B I *L 0
*I *263:C I *L 0
*I *264:B I *L 0
*I *265:C I *L 0
*I *266:B I *L 0
*I *267:B I *L 0
*I *268:B I *L 0
*I *269:B I *L 0
*I *270:B I *L 0
*CAP
1 253_1 0.0001836
2 253_2 0.00023664
3 253_3 0.00021504
4 253_4 6.12e-05
5 253_5 1.344e-05
6 253_6 6.096e-05
7 253_7 2.04e-05
8 253_8 4.92e-05
9 253_9 0.00018816
10 253_10 0.0003228
11 253_11 2.04e-05
12 253_12 0.0002532
13 253_13 0.0001344
14 253_14 0.00025536
15 253_15 9.6e-05
16 253_16 8.4e-06
17 253_17 4.704e-05
18 253_18 0.00021504
19 253_19 4.08e-05
20 253_20 3.36e-05
21 253_21 0.00149952
22 253_22 0.00016128
23 253_23 0
24 253_24 2.688e-05
25 253_25 4.08e-05
26 253_26 7.416e-05
27 253_27 4.08e-05
28 253_28 0.00025704
29 253_29 0.0003876
30 253_30 2.04e-05
31 253_31 0.00109392
*RES
1 *254:Y 253_1 2.1
2 253_1 253_2 2.70667
3 253_2 *255:C 0
4 253_1 253_3 5.97333
5 253_3 253_4 0.7
6 253_4 *256:B 0
7 253_3 253_5 0.373333
8 253_5 253_6 1.02667
9 253_6 253_7 0.233333
10 253_7 *257:C 0
11 253_7 253_8 0.7
12 253_8 253_9 5.22667
13 253_9 *258:B 0
14 253_8 253_10 4.1
15 253_10 253_11 0.233333
16 253_11 *259:C 0
17 253_11 253_12 3.03333
18 253_12 253_13 3.73333
19 253_13 *260:C 0
20 253_12 253_14 2.89333
21 253_14 253_15 0.666667
22 253_15 253_16 0.233333
23 253_16 253_17 1.30667
24 253_17 *261:C 0
25 253_16 253_18 5.97333
26 253_18 253_19 0.466667
27 253_19 *262:B 0
28 253_18 253_20 0.933333
29 253_20 *263:C 0
30 253_15 253_21 15.4533
31 253_21 *264:B 0
32 253_14 253_22 4.48
33 253_22 253_23 0
34 253_23 *265:C 0
35 253_22 253_24 0.746667
36 253_24 253_25 0.466667
37 253_25 *266:B 0
38 253_24 253_26 1.72667
39 253_26 253_27 0.466667
40 253_27 *267:B 0
41 253_26 253_28 2.94
42 253_28 *268:B 0
43 253_5 253_29 4.43333
44 253_29 253_30 0.233333
45 253_30 *269:B 0
46 253_30 253_31 13.1867
47 253_31 *270:B 0
*END
*D_NET *271 0.00407496
*CONN
*I *272:Y O *D BUFX2
*I *273:C I *L 0
*I *274:C I *L 0
*I *275:C I *L 0
*I *276:C I *L 0
*I *277:B I *L 0
*I *278:B I *L 0
*I *279:C I *L 0
*I *280:C I *L 0
*I *281:B I *L 0
*I *282:B I *L 0
*I *283:C I *L 0
*I *284:C I *L 0
*I *285:C I *L 0
*I *286:B I *L 0
*I *287:C I *L 0
*I *288:B I *L 0
*CAP
1 271_1 5.424e-05
2 271_2 0.00011424
3 271_3 0
4 271_4 0.00016128
5 271_5 0
6 271_6 8.064e-05
7 271_7 0
8 271_8 6.72e-05
9 271_9 0.00011424
10 271_10 0.00026496
11 271_11 0.0004488
12 271_12 0.000204
13 271_13 2.04e-05
14 271_14 0.00073248
15 271_15 2.04e-05
16 271_16 0.00018864
17 271_17 4.08e-05
18 271_18 4.032e-05
19 271_19 4.032e-05
20 271_20 0
21 271_21 0.00025704
22 271_22 4.08e-05
23 271_23 3.36e-05
24 271_24 0
25 271_25 0.00037872
26 271_26 2.04e-05
27 271_27 0.00011424
28 271_28 0
29 271_29 0.000312
30 271_30 0.0002244
31 271_31 0.0001008
*RES
1 *272:Y 271_1 0.84
2 271_1 271_2 3.17333
3 271_2 271_3 0
4 271_3 *273:C 0
5 271_2 271_4 4.48
6 271_4 271_5 0
7 271_5 *274:C 0
8 271_4 271_6 2.24
9 271_6 271_7 0
10 271_7 *275:C 0
11 271_6 271_8 1.86667
12 271_8 271_9 3.17333
13 271_9 *276:C 0
14 271_8 271_10 3.36
15 271_10 *277:B 0
16 271_1 271_11 5.13333
17 271_11 271_12 2.33333
18 271_12 271_13 0.233333
19 271_13 *278:B 0
20 271_13 271_14 9.14667
21 271_14 271_15 0.233333
22 271_15 *279:C 0
23 271_15 271_16 4.57333
24 271_16 271_17 0.466667
25 271_17 *280:C 0
26 271_16 271_18 1.12
27 271_18 271_19 1.12
28 271_19 271_20 0
29 271_20 *281:B 0
30 271_20 271_21 2.94
31 271_21 271_22 0.466667
32 271_22 *282:B 0
33 271_21 271_23 0.933333
34 271_23 271_24 0
35 271_24 *283:C 0
36 271_23 271_25 7.18667
37 271_25 271_26 0.233333
38 271_26 *284:C 0
39 271_26 271_27 3.17333
40 271_27 271_28 0
41 271_28 *285:C 0
42 271_28 271_29 4.66667
43 271_29 *286:B 0
44 271_18 271_30 2.56667
45 271_30 *287:C 0
46 271_11 271_31 2.8
47 271_31 *288:B 0
*END
*D_NET *289 0.00436752
*CONN
*I *290:Y O *D BUFX2
*I *291:C I *L 0
*I *292:B I *L 0
*I *293:C I *L 0
*I *294:B I *L 0
*I *295:C I *L 0
*I *296:B I *L 0
*I *297:C I *L 0
*I *298:B I *L 0
*I *299:B I *L 0
*I *300:C I *L 0
*I *301:B I *L 0
*I *302:C I *L 0
*I *303:B I *L 0
*I *304:C I *L 0
*I *305:C I *L 0
*I *306:C I *L 0
*CAP
1 289_1 0.00011856
2 289_2 0.0001008
3 289_3 0
4 289_4 0.00019536
5 289_5 0.0001836
6 289_6 0.0002856
7 289_7 0.0001836
8 289_8 0.0001212
9 289_9 0.0001188
10 289_10 0.00021624
11 289_11 2.04e-05
12 289_12 0.0002328
13 289_13 5.376e-05
14 289_14 0
15 289_15 0.00033144
16 289_16 6.12e-05
17 289_17 0.00017256
18 289_18 8.16e-05
19 289_19 0.0001212
20 289_20 8.16e-05
21 289_21 0.00033816
22 289_22 2.04e-05
23 289_23 0.0002244
24 289_24 8.064e-05
25 289_25 6.048e-05
26 289_26 0.00012096
27 289_27 0
28 289_28 6.768e-05
29 289_29 0.00041784
30 289_30 0.00035664
*RES
1 *290:Y 289_1 1.4
2 289_1 289_2 2.8
3 289_2 289_3 0
4 289_3 *291:C 0
5 289_2 289_4 4.76
6 289_4 *292:B 0
7 289_1 289_5 2.1
8 289_5 289_6 3.26667
9 289_6 289_7 2.1
10 289_7 *293:C 0
11 289_6 289_8 3.03333
12 289_8 289_9 1.07333
13 289_9 *294:B 0
14 289_8 289_10 2.47333
15 289_10 289_11 0.233333
16 289_11 *295:C 0
17 289_11 289_12 2.8
18 289_12 289_13 1.49333
19 289_13 289_14 0
20 289_14 *296:B 0
21 289_14 289_15 6.20667
22 289_15 289_16 0.7
23 289_16 *297:C 0
24 289_15 289_17 3.12667
25 289_17 289_18 0.933333
26 289_18 *298:B 0
27 289_17 289_19 3.03333
28 289_19 289_20 0.933333
29 289_20 *299:B 0
30 289_19 289_21 6.39333
31 289_21 289_22 0.233333
32 289_22 *300:C 0
33 289_22 289_23 2.56667
34 289_23 *301:B 0
35 289_22 289_24 2.24
36 289_24 *302:C 0
37 289_12 289_25 1.68
38 289_25 289_26 3.36
39 289_26 289_27 0
40 289_27 *303:B 0
41 289_26 289_28 1.21333
42 289_28 *304:C 0
43 289_25 289_29 4.00667
44 289_29 *305:C 0
45 289_5 289_30 9.24
46 289_30 *306:C 0
*END
*D_NET *307 0.00382296
*CONN
*I *308:Y O *D BUFX2
*I *309:A I *L 0
*I *310:A I *L 0
*I *311:A I *L 0
*I *312:A I *L 0
*I *313:A I *L 0
*I *314:A I *L 0
*I *315:A I *L 0
*I *316:A I *L 0
*I *317:A I *L 0
*I *318:A I *L 0
*I *319:A I *L 0
*I *320:A I *L 0
*I *321:A I *L 0
*CAP
1 307_1 0
2 307_2 9.408e-05
3 307_3 0
4 307_4 0.00020952
5 307_5 8.16e-05
6 307_6 2.04e-05
7 307_7 0.00041736
8 307_8 0.0001488
9 307_9 2.04e-05
10 307_10 0.00014784
11 307_11 0.0002856
12 307_12 2.04e-05
13 307_13 7.392e-05
14 307_14 0
15 307_15 0.0002268
16 307_16 0.00056736
17 307_17 6.048e-05
18 307_18 0.0002856
19 307_19 2.04e-05
20 307_20 0.00050928
21 307_21 2.04e-05
22 307_22 5.76e-05
23 307_23 9.408e-05
24 307_24 0.00046104
*RES
1 *308:Y 307_1 0
2 307_1 307_2 2.61333
3 307_2 307_3 0
4 307_3 *309:A 0
5 307_2 307_4 4.15333
6 307_4 307_5 0.933333
7 307_5 307_6 0.233333
8 307_6 *310:A 0
9 307_6 307_7 5.36667
10 307_7 *311:A 0
11 307_4 307_8 2.8
12 307_8 307_9 0.233333
13 307_9 *312:A 0
14 307_9 307_10 4.10667
15 307_10 307_11 3.26667
16 307_11 307_12 0.233333
17 307_12 *313:A 0
18 307_12 307_13 2.05333
19 307_13 307_14 0
20 307_14 *314:A 0
21 307_13 307_15 3.96667
22 307_15 *315:A 0
23 307_10 307_16 9.96
24 307_16 307_17 1.68
25 307_17 *316:A 0
26 307_16 307_18 3.26667
27 307_18 307_19 0.233333
28 307_19 *317:A 0
29 307_19 307_20 6.81333
30 307_20 307_21 0.233333
31 307_21 *318:A 0
32 307_21 307_22 0.373333
33 307_22 *319:A 0
34 307_21 307_23 2.61333
35 307_23 *320:A 0
36 307_1 307_24 5.27333
37 307_24 *321:A 0
*END
*D_NET *322 0.00281064
*CONN
*I *323:Y O *D BUFX2
*I *324:B I *L 0
*I *325:B I *L 0
*I *326:B I *L 0
*I *327:B I *L 0
*I *328:B I *L 0
*I *329:B I *L 0
*I *330:B I *L 0
*I *331:B I *L 0
*I *332:B I *L 0
*I *333:B I *L 0
*I *334:B I *L 0
*I *335:B I *L 0
*CAP
1 322_1 8.4e-06
2 322_2 0.00021288
3 322_3 1.344e-05
4 322_4 0.00036576
5 322_5 2.04e-05
6 322_6 0.00033216
7 322_7 2.04e-05
8 322_8 0.0002244
9 322_9 0.00011904
10 322_10 6.72e-05
11 322_11 0
12 322_12 0.00027792
13 322_13 0.000144
14 322_14 6.144e-05
15 322_15 0.000168
16 322_16 0.000102
17 322_17 0.00012888
18 322_18 0.0002448
19 322_19 5.76e-05
20 322_20 8.064e-05
21 322_21 0.00011424
22 322_22 0
23 322_23 4.704e-05
*RES
1 *323:Y 322_1 0.233333
2 322_1 322_2 3.68667
3 322_2 *324:B 0
4 322_1 322_3 0.373333
5 322_3 322_4 6.16
6 322_4 322_5 0.233333
7 322_5 *325:B 0
8 322_5 322_6 5.22667
9 322_6 322_7 0.233333
10 322_7 *326:B 0
11 322_7 322_8 2.56667
12 322_8 322_9 0.933333
13 322_9 *327:B 0
14 322_8 322_10 1.86667
15 322_10 322_11 0
16 322_11 *328:B 0
17 322_10 322_12 4.38667
18 322_12 *329:B 0
19 322_3 322_13 1
20 322_13 322_14 0.706667
21 322_14 *330:B 0
22 322_13 322_15 4.66667
23 322_15 322_16 1.16667
24 322_16 *331:B 0
25 322_15 322_17 1.91333
26 322_17 322_18 2.8
27 322_18 322_19 0.373333
28 322_19 *332:B 0
29 322_18 322_20 2.24
30 322_20 *333:B 0
31 322_17 322_21 3.17333
32 322_21 322_22 0
33 322_22 *334:B 0
34 322_21 322_23 1.30667
35 322_23 *335:B 0
*END
*D_NET *336 0.00475032
*CONN
*I *337:Y O *D BUFX2
*I *338:B I *L 0
*I *339:B I *L 0
*I *340:B I *L 0
*I *341:B I *L 0
*I *342:B I *L 0
*I *343:B I *L 0
*I *344:B I *L 0
*I *345:B I *L 0
*I *346:B I *L 0
*I *347:B I *L 0
*I *348:B I *L 0
*I *349:B I *L 0
*CAP
1 336_1 0.00105912
2 336_2 2.04e-05
3 336_3 0.00030384
4 336_4 6.12e-05
5 336_5 3.36e-05
6 336_6 6.12e-05
7 336_7 2.04e-05
8 336_8 0.00027696
9 336_9 0.0001224
10 336_10 0.00037344
11 336_11 0.000204
12 336_12 0.00014784
13 336_13 5.376e-05
14 336_14 0.0005916
15 336_15 9.84e-05
16 336_16 0.00026904
17 336_17 4.08e-05
18 336_18 2.04e-05
19 336_19 0.00043344
20 336_20 0.00033216
21 336_21 0
22 336_22 8.064e-05
23 336_23 0.00014568
*RES
1 *337:Y 336_1 12.5533
2 336_1 336_2 0.233333
3 336_2 *338:B 0
4 336_2 336_3 4.57333
5 336_3 336_4 0.7
6 336_4 *339:B 0
7 336_3 336_5 0.933333
8 336_5 336_6 0.7
9 336_6 336_7 0.233333
10 336_7 *340:B 0
11 336_7 336_8 5.69333
12 336_8 336_9 1.4
13 336_9 *341:B 0
14 336_8 336_10 5.04
15 336_10 336_11 2.33333
16 336_11 *342:B 0
17 336_10 336_12 4.10667
18 336_12 336_13 1.49333
19 336_13 *343:B 0
20 336_12 336_14 6.76667
21 336_14 336_15 0.84
22 336_15 *344:B 0
23 336_14 336_16 7.14
24 336_16 336_17 0.466667
25 336_17 336_18 0.233333
26 336_18 *345:B 0
27 336_18 336_19 7.37333
28 336_19 *346:B 0
29 336_16 336_20 4.49333
30 336_20 336_21 0
31 336_21 *347:B 0
32 336_20 336_22 2.24
33 336_22 *348:B 0
34 336_5 336_23 1.82
35 336_23 *349:B 0
*END
*D_NET *350 0.00418152
*CONN
*I *351:Y O *D BUFX2
*I *352:B I *L 0
*I *353:B I *L 0
*I *354:B I *L 0
*I *355:B I *L 0
*I *356:B I *L 0
*I *357:B I *L 0
*I *358:B I *L 0
*I *359:B I *L 0
*I *360:B I *L 0
*I *361:B I *L 0
*I *362:B I *L 0
*I *363:B I *L 0
*CAP
1 350_1 6.96e-05
2 350_2 0.00022704
3 350_3 0.00020184
4 350_4 0.0001224
5 350_5 2.04e-05
6 350_6 6.72e-05
7 350_7 0.0001428
8 350_8 2.04e-05
9 350_9 0.0001308
10 350_10 6.72e-05
11 350_11 0.000102
12 350_12 0.00035328
13 350_13 2.04e-05
14 350_14 0.00056232
15 350_15 2.04e-05
16 350_16 8.064e-05
17 350_17 0.00012192
18 350_18 0.00050184
19 350_19 0.00020832
20 350_20 2.04e-05
21 350_21 4.08e-05
22 350_22 0.00048144
23 350_23 0.00059808
*RES
1 *351:Y 350_1 0.933333
2 350_1 350_2 3.08
3 350_2 *352:B 0
4 350_1 350_3 5.27333
5 350_3 350_4 1.4
6 350_4 350_5 0.233333
7 350_5 *353:B 0
8 350_5 350_6 1.86667
9 350_6 *354:B 0
10 350_3 350_7 1.63333
11 350_7 350_8 0.233333
12 350_8 *355:B 0
13 350_8 350_9 1.63333
14 350_9 350_10 1.86667
15 350_10 350_11 1.16667
16 350_11 *356:B 0
17 350_10 350_12 4.48
18 350_12 350_13 0.233333
19 350_13 *357:B 0
20 350_13 350_14 7.42
21 350_14 350_15 0.233333
22 350_15 *358:B 0
23 350_15 350_16 2.24
24 350_16 *359:B 0
25 350_9 350_17 2.05333
26 350_17 350_18 5.74
27 350_18 *360:B 0
28 350_17 350_19 5.78667
29 350_19 350_20 0.233333
30 350_20 350_21 0.466667
31 350_21 *361:B 0
32 350_20 350_22 5.50667
33 350_22 *362:B 0
34 350_19 350_23 6.81333
35 350_23 *363:B 0
*END
*D_NET *364 0.00449328
*CONN
*I *365:Y O *D BUFX2
*I *366:B I *L 0
*I *367:B I *L 0
*I *368:B I *L 0
*I *369:B I *L 0
*I *370:B I *L 0
*I *371:B I *L 0
*I *372:B I *L 0
*I *373:B I *L 0
*I *374:B I *L 0
*I *375:B I *L 0
*I *376:B I *L 0
*I *377:B I *L 0
*CAP
1 364_1 0
2 364_2 0.0004416
3 364_3 0.0001392
4 364_4 0.00020256
5 364_5 0.00012192
6 364_6 7.392e-05
7 364_7 0.000384
8 364_8 0.00050808
9 364_9 5.76e-05
10 364_10 4.704e-05
11 364_11 0.0007428
12 364_12 6.72e-05
13 364_13 0.00014856
14 364_14 0.0001188
15 364_15 0.00013344
16 364_16 0.00010176
17 364_17 0.00056304
18 364_18 0.0002244
19 364_19 2.04e-05
20 364_20 0.00027552
21 364_21 0
22 364_22 4.704e-05
23 364_23 7.44e-05
*RES
1 *365:Y 364_1 0
2 364_1 364_2 5.6
3 364_2 364_3 1.30667
4 364_3 *366:B 0
5 364_2 364_4 4.29333
6 364_4 *367:B 0
7 364_1 364_5 2.05333
8 364_5 364_6 2.05333
9 364_6 364_7 4.10667
10 364_7 *368:B 0
11 364_6 364_8 8.44667
12 364_8 364_9 0.373333
13 364_9 *369:B 0
14 364_8 364_10 1.30667
15 364_10 *370:B 0
16 364_5 364_11 8.63333
17 364_11 364_12 1.86667
18 364_12 *371:B 0
19 364_11 364_13 3.12667
20 364_13 364_14 1.07333
21 364_14 *372:B 0
22 364_13 364_15 1.90667
23 364_15 364_16 1.49333
24 364_16 *373:B 0
25 364_15 364_17 6.44
26 364_17 364_18 2.56667
27 364_18 364_19 0.233333
28 364_19 *374:B 0
29 364_19 364_20 7.65333
30 364_20 364_21 0
31 364_21 *375:B 0
32 364_20 364_22 1.30667
33 364_22 *376:B 0
34 364_17 364_23 1.4
35 364_23 *377:B 0
*END
*D_NET *378 0.00402432
*CONN
*I *379:Y O *D BUFX2
*I *380:B I *L 0
*I *381:B I *L 0
*I *382:B I *L 0
*I *383:B I *L 0
*I *384:B I *L 0
*I *385:B I *L 0
*I *386:B I *L 0
*I *387:B I *L 0
*I *388:B I *L 0
*I *389:B I *L 0
*I *390:B I *L 0
*I *391:B I *L 0
*CAP
1 378_1 8.4e-06
2 378_2 0.0001632
3 378_3 3.264e-05
4 378_4 0.00035928
5 378_5 0.00046104
6 378_6 2.04e-05
7 378_7 0.0002124
8 378_8 0.00010824
9 378_9 9.432e-05
10 378_10 6.12e-05
11 378_11 0.0001968
12 378_12 0.00038496
13 378_13 2.04e-05
14 378_14 0.00017472
15 378_15 0
16 378_16 0.0001356
17 378_17 0.0001836
18 378_18 2.04e-05
19 378_19 0.00036552
20 378_20 2.04e-05
21 378_21 0.00039
22 378_22 0.0006108
*RES
1 *379:Y 378_1 0.233333
2 378_1 378_2 1.86667
3 378_2 378_3 0.373333
4 378_3 *380:B 0
5 378_2 378_4 5.64667
6 378_4 *381:B 0
7 378_1 378_5 7.14
8 378_5 378_6 0.233333
9 378_6 *382:B 0
10 378_6 378_7 2.56667
11 378_7 378_8 2.00667
12 378_8 *383:B 0
13 378_7 378_9 2.28667
14 378_9 378_10 0.7
15 378_10 *384:B 0
16 378_9 378_11 2.8
17 378_11 *385:B 0
18 378_1 378_12 8.02667
19 378_12 378_13 0.233333
20 378_13 *386:B 0
21 378_13 378_14 4.85333
22 378_14 378_15 0
23 378_15 *387:B 0
24 378_15 378_16 2.1
25 378_16 378_17 2.1
26 378_17 378_18 0.233333
27 378_18 *388:B 0
28 378_18 378_19 6.48667
29 378_19 378_20 0.233333
30 378_20 *389:B 0
31 378_20 378_21 5.27333
32 378_21 *390:B 0
33 378_16 378_22 8.63333
34 378_22 *391:B 0
*END
*D_NET *392 0.0042492
*CONN
*I *393:Y O *D BUFX2
*I *394:B I *L 0
*I *395:B I *L 0
*I *396:B I *L 0
*I *397:B I *L 0
*I *398:B I *L 0
*I *399:B I *L 0
*I *400:B I *L 0
*I *401:B I *L 0
*I *402:B I *L 0
*I *403:B I *L 0
*I *404:B I *L 0
*I *405:B I *L 0
*CAP
1 392_1 0.00011184
2 392_2 2.016e-05
3 392_3 0
4 392_4 0.00054024
5 392_5 0.0001344
6 392_6 7.68e-05
7 392_7 4.032e-05
8 392_8 0.0003348
9 392_9 4.704e-05
10 392_10 0.0001632
11 392_11 2.04e-05
12 392_12 0.0006732
13 392_13 9.024e-05
14 392_14 8.4e-06
15 392_15 0.00028224
16 392_16 0.00035616
17 392_17 0.00014448
18 392_18 4.08e-05
19 392_19 0.00010128
20 392_20 2.04e-05
21 392_21 0.00036312
22 392_22 0.00027936
23 392_23 0.00040032
*RES
1 *393:Y 392_1 1.21333
2 392_1 392_2 0.56
3 392_2 392_3 0
4 392_3 *394:B 0
5 392_3 392_4 11.34
6 392_4 *395:B 0
7 392_1 392_5 0.933333
8 392_5 392_6 0.533333
9 392_6 392_7 1.12
10 392_7 *396:B 0
11 392_6 392_8 2.5
12 392_8 392_9 1.30667
13 392_9 392_10 1.86667
14 392_10 392_11 0.233333
15 392_11 *397:B 0
16 392_11 392_12 7.7
17 392_12 392_13 0.746667
18 392_13 *398:B 0
19 392_12 392_14 0.233333
20 392_14 392_15 7.84
21 392_15 *399:B 0
22 392_14 392_16 9.89333
23 392_16 *400:B 0
24 392_9 392_17 4.01333
25 392_17 392_18 0.466667
26 392_18 *401:B 0
27 392_17 392_19 2.14667
28 392_19 392_20 0.233333
29 392_20 *402:B 0
30 392_20 392_21 4.52667
31 392_21 *403:B 0
32 392_8 392_22 7.09333
33 392_22 *404:B 0
34 392_5 392_23 10.4533
35 392_23 *405:B 0
*END
*D_NET *406 0.00506976
*CONN
*I *407:Y O *D BUFX2
*I *408:B I *L 0
*I *409:B I *L 0
*I *410:B I *L 0
*I *411:C I *L 0
*I *412:A I *L 0
*I *413:B I *L 0
*I *414:B I *L 0
*I *415:B I *L 0
*I *416:B I *L 0
*I *417:B I *L 0
*I *418:B I *L 0
*I *419:B I *L 0
*CAP
1 406_1 0.00017568
2 406_2 4.032e-05
3 406_3 8.16e-05
4 406_4 0.0001008
5 406_5 0.00015624
6 406_6 0.00033864
7 406_7 0.0008244
8 406_8 0.0001008
9 406_9 4.08e-05
10 406_10 8.736e-05
11 406_11 0
12 406_12 0.0002988
13 406_13 0.00032256
14 406_14 6.096e-05
15 406_15 0.000282
16 406_16 2.04e-05
17 406_17 0.00091392
18 406_18 0.00026472
19 406_19 2.04e-05
20 406_20 0.0002532
21 406_21 0.0003864
22 406_22 0.00027936
23 406_23 2.04e-05
*RES
1 *407:Y 406_1 3.54667
2 406_1 406_2 1.12
3 406_2 406_3 0.933333
4 406_3 *408:B 0
5 406_2 406_4 2.8
6 406_4 406_5 2.00667
7 406_5 *409:B 0
8 406_4 406_6 3.87333
9 406_6 406_7 9.56667
10 406_7 406_8 2.8
11 406_8 406_9 0.466667
12 406_9 *410:B 0
13 406_8 406_10 2.42667
14 406_10 406_11 0
15 406_11 *411:C 0
16 406_10 406_12 3.96667
17 406_12 *412:A 0
18 406_7 406_13 8.96
19 406_13 406_14 1.02667
20 406_14 *413:B 0
21 406_13 406_15 2.94
22 406_15 *414:B 0
23 406_6 406_16 0.233333
24 406_16 *415:B 0
25 406_1 406_17 10.4533
26 406_17 406_18 3.68667
27 406_18 406_19 0.233333
28 406_19 *416:B 0
29 406_19 406_20 3.03333
30 406_20 406_21 4.94667
31 406_21 *417:B 0
32 406_20 406_22 7.09333
33 406_22 *418:B 0
34 406_17 406_23 0.233333
35 406_23 *419:B 0
*END
*D_NET *420 0.00463464
*CONN
*I *421:Y O *D BUFX2
*I *422:B I *L 0
*I *423:B I *L 0
*I *424:B I *L 0
*I *425:B I *L 0
*I *426:B I *L 0
*I *427:B I *L 0
*I *428:B I *L 0
*I *429:B I *L 0
*I *430:B I *L 0
*I *431:B I *L 0
*I *432:B I *L 0
*I *433:B I *L 0
*CAP
1 420_1 0.00060384
2 420_2 0.0001728
3 420_3 8.064e-05
4 420_4 0
5 420_5 0.00025872
6 420_6 8.784e-05
7 420_7 0.000384
8 420_8 2.016e-05
9 420_9 0.0004944
10 420_10 0
11 420_11 0.00016608
12 420_12 8.52e-05
13 420_13 0.0001728
14 420_14 0.00061752
15 420_15 2.04e-05
16 420_16 0.00012768
17 420_17 0
18 420_18 0.0005868
19 420_19 0.00012096
20 420_20 9.84e-05
21 420_21 1.344e-05
22 420_22 0.0002916
23 420_23 0.00023136
*RES
1 *421:Y 420_1 6.90667
2 420_1 420_2 1.12
3 420_2 *422:B 0
4 420_1 420_3 2.24
5 420_3 420_4 0
6 420_4 *423:B 0
7 420_3 420_5 7.18667
8 420_5 420_6 1.77333
9 420_6 *424:B 0
10 420_5 420_7 2.66667
11 420_7 420_8 0.56
12 420_8 *425:B 0
13 420_7 420_9 5.53333
14 420_9 420_10 0
15 420_10 *426:B 0
16 420_9 420_11 2.41333
17 420_11 420_12 0.766667
18 420_12 420_13 2.24
19 420_13 *427:B 0
20 420_12 420_14 8.82
21 420_14 420_15 0.233333
22 420_15 *428:B 0
23 420_15 420_16 3.54667
24 420_16 420_17 0
25 420_17 *429:B 0
26 420_16 420_18 10.1267
27 420_18 *430:B 0
28 420_11 420_19 3.36
29 420_19 420_20 0.84
30 420_20 *431:B 0
31 420_19 420_21 0.373333
32 420_21 420_22 4.43333
33 420_22 *432:B 0
34 420_21 420_23 2.02667
35 420_23 *433:B 0
*END
*D_NET *434 0.00349872
*CONN
*I *435:Y O *D BUFX2
*I *436:B I *L 0
*I *437:B I *L 0
*I *438:B I *L 0
*I *439:B I *L 0
*I *440:B I *L 0
*I *441:B I *L 0
*I *442:B I *L 0
*I *443:B I *L 0
*I *444:B I *L 0
*I *445:B I *L 0
*I *446:B I *L 0
*I *447:B I *L 0
*CAP
1 434_1 0.00023904
2 434_2 0
3 434_3 0.00047136
4 434_4 6.12e-05
5 434_5 0.0001152
6 434_6 0.0002016
7 434_7 0.0003876
8 434_8 2.04e-05
9 434_9 0.0003324
10 434_10 2.04e-05
11 434_11 0.00011424
12 434_12 4.032e-05
13 434_13 0.00017472
14 434_14 0.0001188
15 434_15 7.392e-05
16 434_16 6.12e-05
17 434_17 6.048e-05
18 434_18 6.12e-05
19 434_19 0.00040128
20 434_20 0
21 434_21 0.00032256
22 434_22 0.0002208
*RES
1 *435:Y 434_1 2.30667
2 434_1 434_2 0
3 434_2 *436:B 0
4 434_1 434_3 9.29333
5 434_3 434_4 0.7
6 434_4 *437:B 0
7 434_4 434_5 0.746667
8 434_5 *438:B 0
9 434_3 434_6 5.6
10 434_6 434_7 4.43333
11 434_7 434_8 0.233333
12 434_8 *439:B 0
13 434_8 434_9 4.9
14 434_9 434_10 0.233333
15 434_10 *440:B 0
16 434_10 434_11 3.17333
17 434_11 *441:B 0
18 434_6 434_12 1.12
19 434_12 434_13 4.85333
20 434_13 434_14 1.07333
21 434_14 *442:B 0
22 434_13 434_15 2.05333
23 434_15 434_16 0.7
24 434_16 *443:B 0
25 434_15 434_17 1.68
26 434_17 434_18 0.7
27 434_18 *444:B 0
28 434_17 434_19 4.74667
29 434_19 434_20 0
30 434_20 *445:B 0
31 434_19 434_21 3.73333
32 434_21 *446:B 0
33 434_12 434_22 1.53333
34 434_22 *447:B 0
*END
*D_NET *448 0.00360072
*CONN
*I *449:Y O *D BUFX2
*I *450:B I *L 0
*I *451:B I *L 0
*I *452:B I *L 0
*I *453:B I *L 0
*I *454:B I *L 0
*I *455:B I *L 0
*I *456:B I *L 0
*I *457:B I *L 0
*I *458:B I *L 0
*I *459:B I *L 0
*I *460:B I *L 0
*I *461:B I *L 0
*CAP
1 448_1 0.00012144
2 448_2 0
3 448_3 0.00033192
4 448_4 2.04e-05
5 448_5 6.72e-05
6 448_6 0
7 448_7 0.0008076
8 448_8 0.00023352
9 448_9 0.0001632
10 448_10 8.64e-05
11 448_11 0.00034944
12 448_12 0.0001632
13 448_13 4.08e-05
14 448_14 0.00013488
15 448_15 0.0001152
16 448_16 0.00017184
17 448_17 0
18 448_18 0.00026952
19 448_19 0.00029856
20 448_20 5.76e-05
21 448_21 0.000168
*RES
1 *449:Y 448_1 2.70667
2 448_1 448_2 0
3 448_2 *450:B 0
4 448_2 448_3 5.55333
5 448_3 448_4 0.233333
6 448_4 *451:B 0
7 448_4 448_5 1.86667
8 448_5 448_6 0
9 448_6 *452:B 0
10 448_6 448_7 9.56667
11 448_7 448_8 3.59333
12 448_8 *453:B 0
13 448_7 448_9 1.13333
14 448_9 448_10 0.6
15 448_10 *454:B 0
16 448_9 448_11 9.70667
17 448_11 448_12 1.86667
18 448_12 448_13 0.466667
19 448_13 *455:B 0
20 448_12 448_14 3.08
21 448_14 *456:B 0
22 448_14 448_15 0.746667
23 448_15 *457:B 0
24 448_11 448_16 2.17333
25 448_16 448_17 0
26 448_17 *458:B 0
27 448_16 448_18 3.68667
28 448_18 *459:B 0
29 448_4 448_19 4.29333
30 448_19 448_20 0.373333
31 448_20 *460:B 0
32 448_19 448_21 4.66667
33 448_21 *461:B 0
*END
*D_NET *462 0.0034872
*CONN
*I *463:Y O *D BUFX2
*I *464:B I *L 0
*I *465:B I *L 0
*I *466:B I *L 0
*I *467:B I *L 0
*I *468:B I *L 0
*I *469:B I *L 0
*I *470:B I *L 0
*I *471:B I *L 0
*I *472:B I *L 0
*I *473:B I *L 0
*I *474:B I *L 0
*I *475:B I *L 0
*CAP
1 462_1 0.00046152
2 462_2 4.08e-05
3 462_3 0.00045384
4 462_4 0.0001224
5 462_5 2.04e-05
6 462_6 0.00069312
7 462_7 2.04e-05
8 462_8 0.0001896
9 462_9 0.000102
10 462_10 0.00017592
11 462_11 0.00014112
12 462_12 1.344e-05
13 462_13 0.0002448
14 462_14 5.76e-05
15 462_15 6.72e-05
16 462_16 8.736e-05
17 462_17 0.00016704
18 462_18 0
19 462_19 3.36e-05
20 462_20 0.00027984
21 462_21 0.0001152
*RES
1 *463:Y 462_1 10.5933
2 462_1 462_2 0.466667
3 462_2 *464:B 0
4 462_1 462_3 7.60667
5 462_3 462_4 1.4
6 462_4 462_5 0.233333
7 462_5 *465:B 0
8 462_5 462_6 8.58667
9 462_6 462_7 0.233333
10 462_7 *466:B 0
11 462_7 462_8 3.26667
12 462_8 462_9 1.16667
13 462_9 *467:B 0
14 462_8 462_10 3.22
15 462_10 *468:B 0
16 462_7 462_11 3.92
17 462_11 462_12 0.373333
18 462_12 *469:B 0
19 462_11 462_13 2.8
20 462_13 462_14 0.373333
21 462_14 *470:B 0
22 462_13 462_15 1.86667
23 462_15 *471:B 0
24 462_3 462_16 2.42667
25 462_16 462_17 1.44
26 462_17 462_18 0
27 462_18 *472:B 0
28 462_17 462_19 0.933333
29 462_19 *473:B 0
30 462_16 462_20 6.44
31 462_20 *474:B 0
32 462_20 462_21 0.746667
33 462_21 *475:B 0
*END
*D_NET *476 0.0035088
*CONN
*I *477:Y O *D BUFX2
*I *478:B I *L 0
*I *479:B I *L 0
*I *480:B I *L 0
*I *481:B I *L 0
*I *482:B I *L 0
*I *483:B I *L 0
*I *484:B I *L 0
*I *485:B I *L 0
*I *486:B I *L 0
*I *487:B I *L 0
*I *488:B I *L 0
*I *489:B I *L 0
*CAP
1 476_1 4.08e-05
2 476_2 0.0004008
3 476_3 0.000204
4 476_4 5.376e-05
5 476_5 0
6 476_6 0.0001152
7 476_7 0.00049392
8 476_8 0.000204
9 476_9 0.0001152
10 476_10 0.0003108
11 476_11 2.04e-05
12 476_12 0.00023664
13 476_13 2.04e-05
14 476_14 3.36e-05
15 476_15 0.00013464
16 476_16 0.000414
17 476_17 3.36e-05
18 476_18 0.000204
19 476_19 2.04e-05
20 476_20 8.064e-05
21 476_21 0.000372
*RES
1 *477:Y 476_1 0.466667
2 476_1 476_2 5.13333
3 476_2 476_3 2.33333
4 476_3 *478:B 0
5 476_2 476_4 1.49333
6 476_4 476_5 0
7 476_5 *479:B 0
8 476_5 476_6 0.746667
9 476_6 *480:B 0
10 476_4 476_7 9.05333
11 476_7 476_8 2.33333
12 476_8 *481:B 0
13 476_8 476_9 0.746667
14 476_9 *482:B 0
15 476_7 476_10 4.43333
16 476_10 476_11 0.233333
17 476_11 *483:B 0
18 476_11 476_12 2.70667
19 476_12 476_13 0.233333
20 476_13 *484:B 0
21 476_13 476_14 0.933333
22 476_14 *485:B 0
23 476_1 476_15 3.40667
24 476_15 476_16 5.83333
25 476_16 476_17 0.933333
26 476_17 *486:B 0
27 476_16 476_18 2.33333
28 476_18 476_19 0.233333
29 476_19 *487:B 0
30 476_19 476_20 2.24
31 476_20 *488:B 0
32 476_15 476_21 7
33 476_21 *489:B 0
*END
*D_NET *490 0.0026568
*CONN
*I *491:Y O *D BUFX2
*I *492:B I *L 0
*I *493:B I *L 0
*I *494:B I *L 0
*I *495:B I *L 0
*I *496:B I *L 0
*I *497:B I *L 0
*I *498:B I *L 0
*I *499:B I *L 0
*I *500:B I *L 0
*I *501:B I *L 0
*I *502:B I *L 0
*I *503:B I *L 0
*CAP
1 490_1 4.92e-05
2 490_2 2.688e-05
3 490_3 0
4 490_4 4.032e-05
5 490_5 0
6 490_6 0.00031248
7 490_7 0.0003672
8 490_8 4.08e-05
9 490_9 5.376e-05
10 490_10 4.08e-05
11 490_11 8.112e-05
12 490_12 0.0001152
13 490_13 0.00054792
14 490_14 0.0003312
15 490_15 0.00023208
16 490_16 0.0001344
17 490_17 0
18 490_18 3.36e-05
19 490_19 0
20 490_20 3.36e-05
21 490_21 0.00019584
22 490_22 2.04e-05
*RES
1 *491:Y 490_1 0.7
2 490_1 490_2 0.746667
3 490_2 490_3 0
4 490_3 *492:B 0
5 490_2 490_4 1.12
6 490_4 490_5 0
7 490_5 *493:B 0
8 490_4 490_6 4.01333
9 490_6 490_7 4.2
10 490_7 490_8 0.466667
11 490_8 *494:B 0
12 490_7 490_9 1.49333
13 490_9 490_10 0.466667
14 490_10 *495:B 0
15 490_9 490_11 1.58667
16 490_11 *496:B 0
17 490_11 490_12 0.746667
18 490_12 *497:B 0
19 490_6 490_13 10.22
20 490_13 *498:B 0
21 490_1 490_14 4.66667
22 490_14 490_15 5.24667
23 490_15 490_16 0.933333
24 490_16 490_17 0
25 490_17 *499:B 0
26 490_16 490_18 0.933333
27 490_18 490_19 0
28 490_19 *500:B 0
29 490_18 490_20 0.933333
30 490_20 *501:B 0
31 490_15 490_21 1.64
32 490_21 *502:B 0
33 490_14 490_22 0.233333
34 490_22 *503:B 0
*END
*D_NET *504 0.00334272
*CONN
*I *505:Y O *D BUFX2
*I *506:B I *L 0
*I *507:B I *L 0
*I *508:B I *L 0
*I *509:B I *L 0
*I *510:B I *L 0
*I *511:B I *L 0
*I *512:B I *L 0
*I *513:A I *L 0
*I *514:B I *L 0
*I *515:B I *L 0
*I *516:B I *L 0
*I *517:B I *L 0
*CAP
1 504_1 0.00037944
2 504_2 0.0001224
3 504_3 6.768e-05
4 504_4 2.04e-05
5 504_5 0.00044064
6 504_6 4.08e-05
7 504_7 0.00017472
8 504_8 4.08e-05
9 504_9 0.0001008
10 504_10 4.08e-05
11 504_11 0.00014832
12 504_12 0.00014448
13 504_13 2.04e-05
14 504_14 0.00025704
15 504_15 0.0002616
16 504_16 0.00011424
17 504_17 8.112e-05
18 504_18 2.04e-05
19 504_19 0.000204
20 504_20 0.00031104
21 504_21 0.0003516
*RES
1 *505:Y 504_1 4.34
2 504_1 *506:B 0
3 504_1 504_2 1.4
4 504_2 504_3 1.21333
5 504_3 504_4 0.233333
6 504_4 *507:B 0
7 504_4 504_5 5.04
8 504_5 504_6 0.466667
9 504_6 *508:B 0
10 504_5 504_7 4.85333
11 504_7 504_8 0.466667
12 504_8 *509:B 0
13 504_7 504_9 2.8
14 504_9 504_10 0.466667
15 504_10 *510:B 0
16 504_9 504_11 3.45333
17 504_11 *511:B 0
18 504_9 504_12 1.74667
19 504_12 504_13 0.233333
20 504_13 *512:B 0
21 504_13 504_14 2.94
22 504_14 504_15 2.70667
23 504_15 *513:A 0
24 504_14 504_16 3.17333
25 504_16 504_17 1.58667
26 504_17 504_18 0.233333
27 504_18 *514:B 0
28 504_18 504_19 2.33333
29 504_19 *515:B 0
30 504_16 504_20 2.44
31 504_20 *516:B 0
32 504_2 504_21 3.59333
33 504_21 *517:B 0
*END
*D_NET *518 0.00313296
*CONN
*I *519:Y O *D BUFX2
*I *520:B I *L 0
*I *521:B I *L 0
*I *522:B I *L 0
*I *523:B I *L 0
*I *524:B I *L 0
*I *525:B I *L 0
*I *526:B I *L 0
*I *527:B I *L 0
*I *528:B I *L 0
*I *529:B I *L 0
*I *530:B I *L 0
*I *531:B I *L 0
*CAP
1 518_1 0.00037416
2 518_2 0.0001848
3 518_3 0.0001152
4 518_4 0.00072576
5 518_5 0.0001224
6 518_6 2.04e-05
7 518_7 0.00045456
8 518_8 8.16e-05
9 518_9 0.00016896
10 518_10 0.0001152
11 518_11 0.00021504
12 518_12 9.6e-05
13 518_13 0
14 518_14 0.0001152
15 518_15 6.048e-05
16 518_16 0.0001344
17 518_17 0
18 518_18 3.36e-05
19 518_19 0.0001152
*RES
1 *519:Y 518_1 5.39333
2 518_1 518_2 1.46667
3 518_2 *520:B 0
4 518_2 518_3 0.746667
5 518_3 *521:B 0
6 518_1 518_4 20.16
7 518_4 518_5 1.4
8 518_5 518_6 0.233333
9 518_6 *522:B 0
10 518_6 518_7 6.62667
11 518_7 518_8 0.933333
12 518_8 *523:B 0
13 518_7 518_9 3.36
14 518_9 *524:B 0
15 518_9 518_10 0.746667
16 518_10 *525:B 0
17 518_4 518_11 4.57333
18 518_11 518_12 0.666667
19 518_12 518_13 0
20 518_13 *526:B 0
21 518_13 518_14 0.746667
22 518_14 *527:B 0
23 518_12 518_15 1.68
24 518_15 *528:B 0
25 518_11 518_16 3.73333
26 518_16 518_17 0
27 518_17 *529:B 0
28 518_16 518_18 0.933333
29 518_18 *530:B 0
30 518_18 518_19 0.746667
31 518_19 *531:B 0
*END
*D_NET *532 0.00381768
*CONN
*I *533:Y O *D BUFX2
*I *534:B I *L 0
*I *535:B I *L 0
*I *536:B I *L 0
*I *537:B I *L 0
*I *538:B I *L 0
*I *539:B I *L 0
*I *540:B I *L 0
*I *541:B I *L 0
*I *542:B I *L 0
*I *543:B I *L 0
*I *544:B I *L 0
*I *545:B I *L 0
*CAP
1 532_1 2.04e-05
2 532_2 0.00018312
3 532_3 6.96e-05
4 532_4 0.00011424
5 532_5 8.112e-05
6 532_6 0.000612
7 532_7 3.264e-05
8 532_8 0.0001152
9 532_9 0.00056976
10 532_10 2.04e-05
11 532_11 0.0003024
12 532_12 0.0004956
13 532_13 0.0004488
14 532_14 0.000144
15 532_15 8.4e-06
16 532_16 3.36e-05
17 532_17 6.72e-05
18 532_18 0.0001152
19 532_19 0.00025536
20 532_20 4.08e-05
21 532_21 8.784e-05
*RES
1 *533:Y 532_1 0.233333
2 532_1 532_2 2.75333
3 532_2 *534:B 0
4 532_1 532_3 0.933333
5 532_3 532_4 3.17333
6 532_4 532_5 1.58667
7 532_5 *535:B 0
8 532_4 532_6 7
9 532_6 532_7 0.373333
10 532_7 *536:B 0
11 532_7 532_8 0.746667
12 532_8 *537:B 0
13 532_6 532_9 8.49333
14 532_9 532_10 0.233333
15 532_10 *538:B 0
16 532_10 532_11 8.4
17 532_11 *539:B 0
18 532_3 532_12 6.76667
19 532_12 532_13 5.13333
20 532_13 532_14 0.933333
21 532_14 *540:B 0
22 532_13 532_15 0.233333
23 532_15 532_16 0.933333
24 532_16 *541:B 0
25 532_15 532_17 1.86667
26 532_17 *542:B 0
27 532_17 532_18 0.746667
28 532_18 *543:B 0
29 532_12 532_19 7.09333
30 532_19 532_20 0.466667
31 532_20 *544:B 0
32 532_19 532_21 1.77333
33 532_21 *545:B 0
*END
*D_NET *546 0.0041688
*CONN
*I *547:Y O *D BUFX2
*I *548:B I *L 0
*I *549:B I *L 0
*I *550:B I *L 0
*I *551:B I *L 0
*I *552:B I *L 0
*I *553:B I *L 0
*I *554:B I *L 0
*I *555:B I *L 0
*I *556:B I *L 0
*I *557:B I *L 0
*I *558:B I *L 0
*I *559:B I *L 0
*CAP
1 546_1 6.96e-05
2 546_2 4.032e-05
3 546_3 0.00018
4 546_4 0.00012768
5 546_5 0.00029784
6 546_6 8.16e-05
7 546_7 0.0001212
8 546_8 0.0001428
9 546_9 0.00063
10 546_10 0.00054504
11 546_11 0.00012864
12 546_12 0.00033984
13 546_13 3.264e-05
14 546_14 0.00011904
15 546_15 0.00017496
16 546_16 0.0002004
17 546_17 0.0005304
18 546_18 2.04e-05
19 546_19 0.0001152
20 546_20 6.72e-05
21 546_21 0
22 546_22 0.000204
*RES
1 *547:Y 546_1 0.933333
2 546_1 546_2 1.12
3 546_2 546_3 1.77333
4 546_3 *548:B 0
5 546_2 546_4 3.54667
6 546_4 546_5 3.40667
7 546_5 546_6 0.933333
8 546_6 *549:B 0
9 546_5 546_7 3.03333
10 546_7 546_8 1.63333
11 546_8 *550:B 0
12 546_7 546_9 7.32667
13 546_9 *551:B 0
14 546_4 546_10 6.74
15 546_10 546_11 2.24
16 546_11 *552:B 0
17 546_10 546_12 4.10667
18 546_12 546_13 0.373333
19 546_13 *553:B 0
20 546_12 546_14 0.933333
21 546_14 *554:B 0
22 546_1 546_15 4.52667
23 546_15 546_16 2.00667
24 546_16 *555:B 0
25 546_15 546_17 6.06667
26 546_17 546_18 0.233333
27 546_18 *556:B 0
28 546_18 546_19 0.746667
29 546_19 *557:B 0
30 546_18 546_20 1.86667
31 546_20 546_21 0
32 546_21 *558:B 0
33 546_21 546_22 2.33333
34 546_22 *559:B 0
*END
*D_NET *560 0.00282528
*CONN
*I *561:Y O *D BUFX2
*I *562:B I *L 0
*I *563:B I *L 0
*I *564:B I *L 0
*I *565:B I *L 0
*I *566:B I *L 0
*I *567:B I *L 0
*I *568:B I *L 0
*I *569:B I *L 0
*I *570:B I *L 0
*I *571:B I *L 0
*I *572:B I *L 0
*I *573:B I *L 0
*CAP
1 560_1 4.92e-05
2 560_2 3.36e-05
3 560_3 0.0002376
4 560_4 2.04e-05
5 560_5 0.00018264
6 560_6 0.0003468
7 560_7 4.08e-05
8 560_8 2.04e-05
9 560_9 7.392e-05
10 560_10 8.736e-05
11 560_11 4.08e-05
12 560_12 7.44e-05
13 560_13 0.00022848
14 560_14 2.688e-05
15 560_15 8.16e-05
16 560_16 2.04e-05
17 560_17 0.0002244
18 560_18 3.264e-05
19 560_19 2.688e-05
20 560_20 3.36e-05
21 560_21 0.0002412
22 560_22 0.00033408
23 560_23 0.0003672
*RES
1 *561:Y 560_1 0.7
2 560_1 560_2 0.933333
3 560_2 *562:B 0
4 560_1 560_3 3.26667
5 560_3 560_4 0.233333
6 560_4 *563:B 0
7 560_4 560_5 3.40667
8 560_5 560_6 3.96667
9 560_6 560_7 0.466667
10 560_7 560_8 0.233333
11 560_8 *564:B 0
12 560_8 560_9 2.05333
13 560_9 *565:B 0
14 560_6 560_10 2.42667
15 560_10 560_11 0.466667
16 560_11 *566:B 0
17 560_10 560_12 1.4
18 560_12 *567:B 0
19 560_5 560_13 6.34667
20 560_13 560_14 0.746667
21 560_14 560_15 0.933333
22 560_15 560_16 0.233333
23 560_16 *568:B 0
24 560_16 560_17 2.56667
25 560_17 560_18 0.373333
26 560_18 *569:B 0
27 560_17 560_19 0.746667
28 560_19 *570:B 0
29 560_14 560_20 0.933333
30 560_20 560_21 2.47333
31 560_21 *571:B 0
32 560_20 560_22 6.72
33 560_22 *572:B 0
34 560_13 560_23 4.2
35 560_23 *573:B 0
*END
*D_NET *574 0.00340032
*CONN
*I *575:Y O *D BUFX2
*I *576:B I *L 0
*I *577:B I *L 0
*I *578:B I *L 0
*I *579:B I *L 0
*I *580:B I *L 0
*I *581:B I *L 0
*I *582:B I *L 0
*I *583:B I *L 0
*I *584:B I *L 0
*I *585:B I *L 0
*I *586:B I *L 0
*I *587:B I *L 0
*CAP
1 574_1 6.96e-05
2 574_2 0.0001692
3 574_3 0.0002352
4 574_4 5.4e-05
5 574_5 0.000102
6 574_6 0.00040056
7 574_7 0
8 574_8 0.00019488
9 574_9 0
10 574_10 0.00015456
11 574_11 0.0003024
12 574_12 0.00011424
13 574_13 0
14 574_14 0.00024264
15 574_15 7.464e-05
16 574_16 0.00042096
17 574_17 4.08e-05
18 574_18 5.376e-05
19 574_19 4.08e-05
20 574_20 0.00023976
21 574_21 1.344e-05
22 574_22 0.00012096
23 574_23 0.00035592
*RES
1 *575:Y 574_1 0.933333
2 574_1 574_2 3.03333
3 574_2 *576:B 0
4 574_1 574_3 6.53333
5 574_3 574_4 1.16667
6 574_4 574_5 1.16667
7 574_5 *577:B 0
8 574_4 574_6 5.46
9 574_6 574_7 0
10 574_7 *578:B 0
11 574_6 574_8 5.41333
12 574_8 574_9 0
13 574_9 *579:B 0
14 574_8 574_10 4.29333
15 574_10 574_11 3.17333
16 574_11 *580:B 0
17 574_10 574_12 3.17333
18 574_12 574_13 0
19 574_13 *581:B 0
20 574_12 574_14 2.14
21 574_14 574_15 1.07333
22 574_15 *582:B 0
23 574_14 574_16 5.69333
24 574_16 574_17 0.466667
25 574_17 *583:B 0
26 574_16 574_18 1.49333
27 574_18 574_19 0.466667
28 574_19 *584:B 0
29 574_18 574_20 2.26
30 574_20 574_21 0.373333
31 574_21 *585:B 0
32 574_20 574_22 3.36
33 574_22 *586:B 0
34 574_3 574_23 4.28667
35 574_23 *587:B 0
*END
*D_NET *588 0.0038532
*CONN
*I *589:Y O *D BUFX2
*I *590:A I *L 0
*I *591:A I *L 0
*I *592:A I *L 0
*I *593:A I *L 0
*I *594:A I *L 0
*I *595:A I *L 0
*I *596:A I *L 0
*I *597:A I *L 0
*I *598:A I *L 0
*I *599:A I *L 0
*I *600:A I *L 0
*I *601:A I *L 0
*CAP
1 588_1 0
2 588_2 6.768e-05
3 588_3 0.00033864
4 588_4 2.04e-05
5 588_5 0.00066456
6 588_6 2.04e-05
7 588_7 5.376e-05
8 588_8 0
9 588_9 5.376e-05
10 588_10 0
11 588_11 5.76e-05
12 588_12 0.000372
13 588_13 0.000102
14 588_14 0.00065112
15 588_15 0.0001224
16 588_16 4.704e-05
17 588_17 7.392e-05
18 588_18 0.0001224
19 588_19 0.00067896
20 588_20 0.0002304
21 588_21 6.12e-05
22 588_22 0.00011496
*RES
1 *589:Y 588_1 0
2 588_1 588_2 1.21333
3 588_2 *590:A 0
4 588_1 588_3 3.87333
5 588_3 588_4 0.233333
6 588_4 *591:A 0
7 588_4 588_5 8.26
8 588_5 588_6 0.233333
9 588_6 *592:A 0
10 588_6 588_7 1.49333
11 588_7 588_8 0
12 588_8 *593:A 0
13 588_7 588_9 1.49333
14 588_9 588_10 0
15 588_10 *594:A 0
16 588_10 588_11 0.373333
17 588_11 *595:A 0
18 588_10 588_12 7
19 588_12 588_13 1.16667
20 588_13 *596:A 0
21 588_12 588_14 9.75333
22 588_14 588_15 1.4
23 588_15 *597:A 0
24 588_14 588_16 1.30667
25 588_16 588_17 2.05333
26 588_17 588_18 1.4
27 588_18 *598:A 0
28 588_17 588_19 9.19333
29 588_19 *599:A 0
30 588_16 588_20 1.6
31 588_20 588_21 0.7
32 588_21 *600:A 0
33 588_20 588_22 2.19333
34 588_22 *601:A 0
*END
*D_NET *602 0.00226752
*CONN
*I *603:Y O *D BUFX2
*I *604:A I *L 0
*I *605:A I *L 0
*I *606:A I *L 0
*I *607:A I *L 0
*I *608:A I *L 0
*I *609:A I *L 0
*I *610:A I *L 0
*I *611:A I *L 0
*I *612:A I *L 0
*I *613:A I *L 0
*I *614:A I *L 0
*I *615:A I *L 0
*CAP
1 602_1 0.0003264
2 602_2 8.4e-06
3 602_3 6.768e-05
4 602_4 0.000108
5 602_5 5.76e-05
6 602_6 0.00010752
7 602_7 0.00046056
8 602_8 6.12e-05
9 602_9 5.76e-05
10 602_10 6.048e-05
11 602_11 6.12e-05
12 602_12 0.00020304
13 602_13 2.04e-05
14 602_14 3.36e-05
15 602_15 0
16 602_16 5.76e-05
17 602_17 8.064e-05
18 602_18 0
19 602_19 0.0004956
*RES
1 *603:Y 602_1 3.73333
2 602_1 602_2 0.233333
3 602_2 602_3 1.21333
4 602_3 *604:A 0
5 602_2 602_4 2.33333
6 602_4 *605:A 0
7 602_4 602_5 0.373333
8 602_5 *606:A 0
9 602_1 602_6 2.98667
10 602_6 *607:A 0
11 602_1 602_7 5.92667
12 602_7 602_8 0.7
13 602_8 *608:A 0
14 602_8 602_9 0.373333
15 602_9 *609:A 0
16 602_7 602_10 1.68
17 602_10 602_11 0.7
18 602_11 *610:A 0
19 602_10 602_12 3.64
20 602_12 602_13 0.233333
21 602_13 *611:A 0
22 602_13 602_14 0.933333
23 602_14 602_15 0
24 602_15 *612:A 0
25 602_15 602_16 0.373333
26 602_16 *613:A 0
27 602_14 602_17 2.24
28 602_17 602_18 0
29 602_18 *614:A 0
30 602_18 602_19 6.76667
31 602_19 *615:A 0
*END
*D_NET *616 0.00297192
*CONN
*I *617:Y O *D BUFX2
*I *618:A I *L 0
*I *619:A I *L 0
*I *620:A I *L 0
*I *621:A I *L 0
*I *622:A I *L 0
*I *623:A I *L 0
*I *624:A I *L 0
*I *625:A I *L 0
*I *626:A I *L 0
*I *627:A I *L 0
*I *628:A I *L 0
*I *629:A I *L 0
*CAP
1 616_1 0.00010848
2 616_2 5.76e-05
3 616_3 2.04e-05
4 616_4 6.12e-05
5 616_5 0.0002652
6 616_6 0.0002856
7 616_7 2.04e-05
8 616_8 0.00036624
9 616_9 2.04e-05
10 616_10 2.688e-05
11 616_11 0.00018144
12 616_12 0.0001428
13 616_13 4.08e-05
14 616_14 5.376e-05
15 616_15 6.096e-05
16 616_16 2.04e-05
17 616_17 0.00024408
18 616_18 5.76e-05
19 616_19 0.00048888
20 616_20 0.00027264
21 616_21 0.00017616
*RES
1 *617:Y 616_1 1.68
2 616_1 616_2 0.373333
3 616_2 *618:A 0
4 616_1 616_3 0.233333
5 616_3 616_4 0.7
6 616_4 *619:A 0
7 616_3 616_5 3.03333
8 616_5 616_6 3.26667
9 616_6 616_7 0.233333
10 616_7 *620:A 0
11 616_7 616_8 5.50667
12 616_8 616_9 0.233333
13 616_9 *621:A 0
14 616_9 616_10 0.746667
15 616_10 *622:A 0
16 616_5 616_11 5.04
17 616_11 616_12 1.63333
18 616_12 616_13 0.466667
19 616_13 *623:A 0
20 616_12 616_14 1.49333
21 616_14 616_15 1.02667
22 616_15 616_16 0.233333
23 616_16 *624:A 0
24 616_16 616_17 3.78
25 616_17 *625:A 0
26 616_17 616_18 0.373333
27 616_18 *626:A 0
28 616_14 616_19 6.58
29 616_19 *627:A 0
30 616_11 616_20 2.17333
31 616_20 *628:A 0
32 616_1 616_21 2.89333
33 616_21 *629:A 0
*END
*D_NET *630 0.00300504
*CONN
*I *631:Y O *D BUFX2
*I *632:A I *L 0
*I *633:A I *L 0
*I *634:A I *L 0
*I *635:A I *L 0
*I *636:A I *L 0
*I *637:A I *L 0
*I *638:A I *L 0
*I *639:A I *L 0
*I *640:A I *L 0
*I *641:A I *L 0
*I *642:A I *L 0
*I *643:A I *L 0
*CAP
1 630_1 5.76e-05
2 630_2 0
3 630_3 8.4e-06
4 630_4 3.36e-05
5 630_5 0.00024192
6 630_6 0
7 630_7 0.00054912
8 630_8 4.08e-05
9 630_9 0.00034896
10 630_10 0.000102
11 630_11 0.00057048
12 630_12 2.04e-05
13 630_13 5.76e-05
14 630_14 3.36e-05
15 630_15 0.0003468
16 630_16 4.08e-05
17 630_17 0.0002244
18 630_18 0.00010176
19 630_19 0.0001692
20 630_20 5.76e-05
*RES
1 *631:Y 630_1 0.373333
2 630_1 *632:A 0
3 630_1 630_2 0
4 630_2 630_3 0.233333
5 630_3 630_4 0.933333
6 630_4 *633:A 0
7 630_3 630_5 6.72
8 630_5 630_6 0
9 630_6 *634:A 0
10 630_6 630_7 8.58667
11 630_7 630_8 0.466667
12 630_8 *635:A 0
13 630_7 630_9 4.01333
14 630_9 630_10 1.16667
15 630_10 *636:A 0
16 630_9 630_11 7.51333
17 630_11 630_12 0.233333
18 630_12 *637:A 0
19 630_12 630_13 0.373333
20 630_13 *638:A 0
21 630_12 630_14 0.933333
22 630_14 *639:A 0
23 630_2 630_15 3.96667
24 630_15 630_16 0.466667
25 630_16 630_17 2.56667
26 630_17 *640:A 0
27 630_16 630_18 1.49333
28 630_18 *641:A 0
29 630_15 630_19 3.03333
30 630_19 *642:A 0
31 630_19 630_20 0.373333
32 630_20 *643:A 0
*END
*D_NET *644 0.0031884
*CONN
*I *645:Y O *D BUFX2
*I *646:A I *L 0
*I *647:A I *L 0
*I *648:A I *L 0
*I *649:A I *L 0
*I *650:A I *L 0
*I *651:A I *L 0
*I *652:A I *L 0
*I *653:A I *L 0
*I *654:A I *L 0
*I *655:A I *L 0
*I *656:A I *L 0
*I *657:A I *L 0
*CAP
1 644_1 5.76e-05
2 644_2 3.36e-05
3 644_3 0
4 644_4 0.00035112
5 644_5 4.08e-05
6 644_6 0.00041832
7 644_7 0
8 644_8 0.00022944
9 644_9 8.064e-05
10 644_10 8.16e-05
11 644_11 5.4e-05
12 644_12 8.16e-05
13 644_13 0.00024336
14 644_14 0.00016272
15 644_15 5.76e-05
16 644_16 0.0006732
17 644_17 2.04e-05
18 644_18 5.376e-05
19 644_19 1.344e-05
20 644_20 0.00014784
21 644_21 0.00038736
*RES
1 *645:Y 644_1 0.373333
2 644_1 *646:A 0
3 644_1 644_2 0.933333
4 644_2 644_3 0
5 644_3 *647:A 0
6 644_3 644_4 7.42
7 644_4 644_5 0.466667
8 644_5 *648:A 0
9 644_4 644_6 9.28667
10 644_6 644_7 0
11 644_7 *649:A 0
12 644_7 644_8 5.04
13 644_8 644_9 2.24
14 644_9 644_10 0.933333
15 644_10 *650:A 0
16 644_9 644_11 1.16667
17 644_11 644_12 0.933333
18 644_12 *651:A 0
19 644_11 644_13 4.76
20 644_13 644_14 2.52
21 644_14 *652:A 0
22 644_14 644_15 0.373333
23 644_15 *653:A 0
24 644_13 644_16 7.7
25 644_16 644_17 0.233333
26 644_17 *654:A 0
27 644_17 644_18 1.49333
28 644_18 644_19 0.373333
29 644_19 *655:A 0
30 644_18 644_20 1.30667
31 644_20 *656:A 0
32 644_8 644_21 4.76
33 644_21 *657:A 0
*END
*D_NET *658 0.00314928
*CONN
*I *659:Y O *D BUFX2
*I *660:A I *L 0
*I *661:A I *L 0
*I *662:A I *L 0
*I *663:A I *L 0
*I *664:A I *L 0
*I *665:A I *L 0
*I *666:A I *L 0
*I *667:A I *L 0
*I *668:A I *L 0
*I *669:A I *L 0
*I *670:A I *L 0
*I *671:A I *L 0
*CAP
1 658_1 2.04e-05
2 658_2 0.0001224
3 658_3 8.112e-05
4 658_4 1.344e-05
5 658_5 4.08e-05
6 658_6 0.00027048
7 658_7 2.04e-05
8 658_8 7.44e-05
9 658_9 4.08e-05
10 658_10 8.736e-05
11 658_11 4.08e-05
12 658_12 7.392e-05
13 658_13 4.08e-05
14 658_14 2.04e-05
15 658_15 0.00070416
16 658_16 0.0001524
17 658_17 2.688e-05
18 658_18 0.0001224
19 658_19 0.0005088
20 658_20 4.08e-05
21 658_21 7.44e-05
22 658_22 0.00030552
23 658_23 0.0002664
*RES
1 *659:Y 658_1 0.233333
2 658_1 658_2 1.4
3 658_2 *660:A 0
4 658_1 658_3 1.58667
5 658_3 658_4 0.373333
6 658_4 658_5 0.466667
7 658_5 *661:A 0
8 658_4 658_6 5.18
9 658_6 658_7 0.233333
10 658_7 *662:A 0
11 658_7 658_8 1.4
12 658_8 658_9 0.466667
13 658_9 *663:A 0
14 658_8 658_10 2.42667
15 658_10 658_11 0.466667
16 658_11 *664:A 0
17 658_10 658_12 2.05333
18 658_12 658_13 0.466667
19 658_13 658_14 0.233333
20 658_14 *665:A 0
21 658_14 658_15 12.2267
22 658_15 *666:A 0
23 658_12 658_16 1.23333
24 658_16 658_17 0.746667
25 658_17 658_18 1.4
26 658_18 *667:A 0
27 658_17 658_19 7.73333
28 658_19 658_20 0.466667
29 658_20 *668:A 0
30 658_19 658_21 1.4
31 658_21 *669:A 0
32 658_16 658_22 4.15333
33 658_22 *670:A 0
34 658_3 658_23 2.4
35 658_23 *671:A 0
*END
*D_NET *672 0.00386088
*CONN
*I *673:Y O *D BUFX2
*I *674:A I *L 0
*I *675:A I *L 0
*I *676:A I *L 0
*I *677:B I *L 0
*I *678:A I *L 0
*I *679:A I *L 0
*I *680:A I *L 0
*I *681:A I *L 0
*I *682:A I *L 0
*I *683:A I *L 0
*I *684:A I *L 0
*I *685:A I *L 0
*CAP
1 672_1 0.0001308
2 672_2 0.00018912
3 672_3 2.688e-05
4 672_4 0.00030336
5 672_5 2.04e-05
6 672_6 0.00039768
7 672_7 8.16e-05
8 672_8 0.0001356
9 672_9 0.0005916
10 672_10 0.00023664
11 672_11 2.04e-05
12 672_12 0.00031824
13 672_13 0.00019584
14 672_14 0.00012768
15 672_15 0.00021576
16 672_16 2.04e-05
17 672_17 0.0001728
18 672_18 0.00017592
19 672_19 8.16e-05
20 672_20 0.00015456
21 672_21 8.16e-05
22 672_22 0.0001824
*RES
1 *673:Y 672_1 1.63333
2 672_1 672_2 3.92
3 672_2 *674:A 0
4 672_1 672_3 0.746667
5 672_3 672_4 7.09333
6 672_4 672_5 0.233333
7 672_5 *675:A 0
8 672_5 672_6 9.38
9 672_6 672_7 0.933333
10 672_7 *676:A 0
11 672_6 672_8 2.1
12 672_8 *677:B 0
13 672_3 672_9 6.76667
14 672_9 672_10 2.70667
15 672_10 672_11 0.233333
16 672_11 *678:A 0
17 672_11 672_12 3.64
18 672_12 672_13 2.24
19 672_13 *679:A 0
20 672_12 672_14 3.54667
21 672_14 *680:A 0
22 672_9 672_15 4.99333
23 672_15 672_16 0.233333
24 672_16 *681:A 0
25 672_16 672_17 1.12
26 672_17 *682:A 0
27 672_16 672_18 3.22
28 672_18 672_19 0.933333
29 672_19 *683:A 0
30 672_18 672_20 4.29333
31 672_20 672_21 0.933333
32 672_21 *684:A 0
33 672_20 672_22 3.73333
34 672_22 *685:A 0
*END
*D_NET *686 0.00403896
*CONN
*I *687:Y O *D BUFX2
*I *688:A I *L 0
*I *689:A I *L 0
*I *690:A I *L 0
*I *691:A I *L 0
*I *692:A I *L 0
*I *693:A I *L 0
*I *694:A I *L 0
*I *695:A I *L 0
*I *696:A I *L 0
*I *697:A I *L 0
*I *698:A I *L 0
*I *699:A I *L 0
*CAP
1 686_1 0.00023256
2 686_2 0.0001224
3 686_3 2.04e-05
4 686_4 0.00019584
5 686_5 0.000102
6 686_6 0.00034176
7 686_7 6.12e-05
8 686_8 0.00034608
9 686_9 4.08e-05
10 686_10 0.00022656
11 686_11 6.12e-05
12 686_12 0.00027984
13 686_13 2.04e-05
14 686_14 0.0002172
15 686_15 2.04e-05
16 686_16 0.0004284
17 686_17 2.04e-05
18 686_18 0.00063696
19 686_19 0.00020736
20 686_20 4.032e-05
21 686_21 5.76e-05
22 686_22 0.00035928
*RES
1 *687:Y 686_1 5.46
2 686_1 686_2 1.4
3 686_2 686_3 0.233333
4 686_3 *688:A 0
5 686_3 686_4 4.10667
6 686_4 686_5 1.16667
7 686_5 *689:A 0
8 686_4 686_6 4.89333
9 686_6 686_7 0.7
10 686_7 *690:A 0
11 686_6 686_8 9.61333
12 686_8 686_9 0.466667
13 686_9 *691:A 0
14 686_8 686_10 2.69333
15 686_10 686_11 0.7
16 686_11 *692:A 0
17 686_10 686_12 6.44
18 686_12 686_13 0.233333
19 686_13 *693:A 0
20 686_13 686_14 3.03333
21 686_14 686_15 0.233333
22 686_15 *694:A 0
23 686_15 686_16 4.9
24 686_16 686_17 0.233333
25 686_17 *695:A 0
26 686_17 686_18 10.36
27 686_18 *696:A 0
28 686_1 686_19 2.56
29 686_19 686_20 1.12
30 686_20 *697:A 0
31 686_20 686_21 0.373333
32 686_21 *698:A 0
33 686_19 686_22 4.91333
34 686_22 *699:A 0
*END
*D_NET *700 0.00197112
*CONN
*I *701:Y O *D BUFX2
*I *702:A I *L 0
*I *703:A I *L 0
*I *704:A I *L 0
*I *705:A I *L 0
*I *706:A I *L 0
*I *707:A I *L 0
*I *708:A I *L 0
*I *709:A I *L 0
*I *710:A I *L 0
*I *711:A I *L 0
*I *712:A I *L 0
*I *713:A I *L 0
*CAP
1 700_1 0.0003588
2 700_2 0.0001728
3 700_3 2.04e-05
4 700_4 0.00024168
5 700_5 8.64e-05
6 700_6 0.000108
7 700_7 6.048e-05
8 700_8 4.08e-05
9 700_9 4.704e-05
10 700_10 6.096e-05
11 700_11 5.76e-05
12 700_12 0.0001836
13 700_13 5.76e-05
14 700_14 4.032e-05
15 700_15 0.0002424
16 700_16 2.04e-05
17 700_17 5.76e-05
18 700_18 5.376e-05
19 700_19 0
20 700_20 6.048e-05
*RES
1 *701:Y 700_1 4.43333
2 700_1 700_2 1.12
3 700_2 *702:A 0
4 700_1 700_3 0.233333
5 700_3 *703:A 0
6 700_3 700_4 3.31333
7 700_4 700_5 0.56
8 700_5 *704:A 0
9 700_4 700_6 2.33333
10 700_6 700_7 1.68
11 700_7 700_8 0.466667
12 700_8 *705:A 0
13 700_7 700_9 1.30667
14 700_9 700_10 1.02667
15 700_10 *706:A 0
16 700_10 700_11 0.373333
17 700_11 *707:A 0
18 700_9 700_12 2.1
19 700_12 700_13 0.373333
20 700_13 *708:A 0
21 700_12 700_14 1.12
22 700_14 *709:A 0
23 700_6 700_15 1.86667
24 700_15 700_16 0.233333
25 700_16 *710:A 0
26 700_16 700_17 0.373333
27 700_17 *711:A 0
28 700_16 700_18 1.49333
29 700_18 700_19 0
30 700_19 *712:A 0
31 700_18 700_20 1.68
32 700_20 *713:A 0
*END
*D_NET *714 0.00264072
*CONN
*I *715:Y O *D BUFX2
*I *716:A I *L 0
*I *717:A I *L 0
*I *718:A I *L 0
*I *719:A I *L 0
*I *720:A I *L 0
*I *721:A I *L 0
*I *722:A I *L 0
*I *723:A I *L 0
*I *724:A I *L 0
*I *725:A I *L 0
*I *726:A I *L 0
*I *727:A I *L 0
*CAP
1 714_1 5.76e-05
2 714_2 0.0001428
3 714_3 4.08e-05
4 714_4 0.00021888
5 714_5 0.00016296
6 714_6 0.00028536
7 714_7 4.08e-05
8 714_8 0.00016128
9 714_9 4.08e-05
10 714_10 9.744e-05
11 714_11 2.688e-05
12 714_12 6.12e-05
13 714_13 0.00015144
14 714_14 4.08e-05
15 714_15 0.0003384
16 714_16 2.04e-05
17 714_17 0.00038616
18 714_18 2.04e-05
19 714_19 0.0001428
20 714_20 4.08e-05
21 714_21 4.032e-05
22 714_22 0.0001224
*RES
1 *715:Y 714_1 0.373333
2 714_1 *716:A 0
3 714_1 714_2 1.63333
4 714_2 714_3 0.466667
5 714_3 *717:A 0
6 714_2 714_4 3.08
7 714_4 714_5 2.19333
8 714_5 *718:A 0
9 714_4 714_6 3.59333
10 714_6 714_7 0.466667
11 714_7 *719:A 0
12 714_6 714_8 4.48
13 714_8 714_9 0.466667
14 714_9 *720:A 0
15 714_8 714_10 2.70667
16 714_10 714_11 0.746667
17 714_11 714_12 0.7
18 714_12 *721:A 0
19 714_11 714_13 3.87333
20 714_13 714_14 0.466667
21 714_14 *722:A 0
22 714_13 714_15 6.06667
23 714_15 714_16 0.233333
24 714_16 *723:A 0
25 714_16 714_17 6.39333
26 714_17 714_18 0.233333
27 714_18 *724:A 0
28 714_18 714_19 1.63333
29 714_19 714_20 0.466667
30 714_20 *725:A 0
31 714_19 714_21 1.12
32 714_21 *726:A 0
33 714_10 714_22 1.4
34 714_22 *727:A 0
*END
*D_NET *728 0.00743376
*CONN
*I *729:Y O *D _2239
*I *730:A I *L 0
*I *731:A I *L 0
*I *732:A I *L 0
*I *733:A I *L 0
*I *734:A I *L 0
*I *735:A I *L 0
*I *736:A I *L 0
*I *737:A I *L 0
*I *738:A I *L 0
*I *739:A I *L 0
*I *740:A I *L 0
*CAP
1 728_1 0.00017664
2 728_2 2.688e-05
3 728_3 0.0006
4 728_4 0.00040536
5 728_5 0.0006228
6 728_6 0.00059808
7 728_7 0.00015504
8 728_8 0.0002688
9 728_9 0.00028272
10 728_10 0.0003636
11 728_11 0.00059616
12 728_12 0.0007056
13 728_13 0.0005088
14 728_14 0.00028896
15 728_15 0.00026592
16 728_16 0
17 728_17 0.0002784
18 728_18 0.00067584
19 728_19 0.00013584
20 728_20 0.00045792
21 728_21 2.04e-05
*RES
1 *729:Y 728_1 1.50667
2 728_1 728_2 0.746667
3 728_2 *730:A 0
4 728_1 728_3 11.8667
5 728_3 728_4 6.39333
6 728_4 *731:A 0
7 728_3 728_5 4.5
8 728_5 728_6 16.6133
9 728_6 728_7 1.77333
10 728_7 *732:A 0
11 728_6 728_8 1.86667
12 728_8 728_9 7.18667
13 728_9 *733:A 0
14 728_8 728_10 2.7
15 728_10 728_11 5.96
16 728_11 *734:A 0
17 728_10 728_12 19.6
18 728_12 728_13 3.53333
19 728_13 *735:A 0
20 728_12 728_14 8.02667
21 728_14 728_15 4.78667
22 728_15 728_16 0
23 728_16 *736:A 0
24 728_15 728_17 3.73333
25 728_17 *737:A 0
26 728_14 728_18 4.97333
27 728_18 *738:A 0
28 728_5 728_19 1.77333
29 728_19 728_20 11.3867
30 728_20 *739:A 0
31 728_19 728_21 0.233333
32 728_21 *740:A 0
*END
*D_NET *741 0.00389424
*CONN
*I *742:Y O *D BUFX2
*I *743:B I *L 0
*I *744:B I *L 0
*I *745:B I *L 0
*I *746:B I *L 0
*I *747:B I *L 0
*I *748:B I *L 0
*I *749:B I *L 0
*I *750:B I *L 0
*I *751:B I *L 0
*I *752:B I *L 0
*I *753:B I *L 0
*CAP
1 741_1 8.4e-06
2 741_2 2.688e-05
3 741_3 3.36e-05
4 741_4 6.12e-05
5 741_5 0.00014112
6 741_6 6.048e-05
7 741_7 6.12e-05
8 741_8 0.00023856
9 741_9 0.00016224
10 741_10 0.0008484
11 741_11 0.0001872
12 741_12 2.04e-05
13 741_13 0.00028464
14 741_14 0.0001632
15 741_15 2.04e-05
16 741_16 0.00027744
17 741_17 0.00048144
18 741_18 0.0002688
19 741_19 0.0001152
20 741_20 0.00043344
*RES
1 *742:Y 741_1 0.233333
2 741_1 741_2 0.746667
3 741_2 741_3 0.933333
4 741_3 741_4 0.7
5 741_4 *743:B 0
6 741_3 741_5 3.92
7 741_5 741_6 1.68
8 741_6 741_7 0.7
9 741_7 *744:B 0
10 741_6 741_8 6.62667
11 741_8 741_9 3.17333
12 741_9 *745:B 0
13 741_8 741_10 10.0333
14 741_10 *746:B 0
15 741_5 741_11 1.66667
16 741_11 741_12 0.233333
17 741_12 *747:B 0
18 741_12 741_13 4.57333
19 741_13 *748:B 0
20 741_2 741_14 1.86667
21 741_14 741_15 0.233333
22 741_15 *749:B 0
23 741_15 741_16 3.17333
24 741_16 741_17 5.50667
25 741_17 *750:B 0
26 741_16 741_18 7.46667
27 741_18 *751:B 0
28 741_18 741_19 0.746667
29 741_19 *752:B 0
30 741_1 741_20 6.97333
31 741_20 *753:B 0
*END
*D_NET *754 0.0053508
*CONN
*I *755:Y O *D BUFX2
*I *756:B I *L 0
*I *757:B I *L 0
*I *758:B I *L 0
*I *759:B I *L 0
*I *760:B I *L 0
*I *761:B I *L 0
*I *762:B I *L 0
*I *763:B I *L 0
*I *764:B I *L 0
*I *765:B I *L 0
*I *766:B I *L 0
*CAP
1 754_1 0.0001416
2 754_2 4.08e-05
3 754_3 7.44e-05
4 754_4 2.04e-05
5 754_5 0.000306
6 754_6 0.00023016
7 754_7 2.04e-05
8 754_8 0.000216
9 754_9 0.0004248
10 754_10 0.00022176
11 754_11 5.4e-05
12 754_12 8.16e-05
13 754_13 0.00046656
14 754_14 0.00019656
15 754_15 0.0006084
16 754_16 0.000306
17 754_17 2.04e-05
18 754_18 0.00039912
19 754_19 0.00036
20 754_20 0
21 754_21 0.00116184
*RES
1 *755:Y 754_1 3.26667
2 754_1 754_2 0.466667
3 754_2 *756:B 0
4 754_1 754_3 1.4
5 754_3 754_4 0.233333
6 754_4 *757:B 0
7 754_4 754_5 3.5
8 754_5 754_6 4.06
9 754_6 754_7 0.233333
10 754_7 *758:B 0
11 754_7 754_8 4.66667
12 754_8 754_9 4.57333
13 754_9 *759:B 0
14 754_8 754_10 6.16
15 754_10 754_11 1.16667
16 754_11 754_12 0.933333
17 754_12 *760:B 0
18 754_11 754_13 8.96
19 754_13 754_14 3.12667
20 754_14 *761:B 0
21 754_13 754_15 6.67333
22 754_15 *762:B 0
23 754_10 754_16 3.5
24 754_16 754_17 0.233333
25 754_17 *763:B 0
26 754_17 754_18 7.42
27 754_18 *764:B 0
28 754_5 754_19 4.66667
29 754_19 754_20 0
30 754_20 *765:B 0
31 754_20 754_21 14.6067
32 754_21 *766:B 0
*END
*D_NET *767 0.00797016
*CONN
*I *768:Y O *D _1851
*I *769:A I *L 0
*I *770:A I *L 0
*I *771:A I *L 0
*I *772:A I *L 0
*I *773:A I *L 0
*I *774:A I *L 0
*I *775:A I *L 0
*I *776:A I *L 0
*I *777:A I *L 0
*I *778:A I *L 0
*I *779:A I *L 0
*CAP
1 767_1 0.00025008
2 767_2 0.00021744
3 767_3 2.04e-05
4 767_4 0.00048672
5 767_5 0.0011076
6 767_6 0.0007404
7 767_7 3.36e-05
8 767_8 0.000102
9 767_9 0.00037296
10 767_10 0.0001428
11 767_11 0.00063864
12 767_12 0.0001428
13 767_13 0.00047808
14 767_14 0.000204
15 767_15 0.00114168
16 767_16 0.0004032
17 767_17 3.84e-05
18 767_18 0.00069672
19 767_19 9.504e-05
20 767_20 0.000576
21 767_21 8.16e-05
*RES
1 *768:Y 767_1 4.94667
2 767_1 767_2 2.70667
3 767_2 767_3 0.233333
4 767_3 *769:A 0
5 767_3 767_4 11.5867
6 767_4 *770:A 0
7 767_1 767_5 9.3
8 767_5 767_6 18.9
9 767_6 767_7 0.933333
10 767_7 767_8 1.16667
11 767_8 *771:A 0
12 767_7 767_9 10.36
13 767_9 767_10 1.63333
14 767_10 *772:A 0
15 767_9 767_11 17.4067
16 767_11 767_12 1.63333
17 767_12 *773:A 0
18 767_11 767_13 11.9467
19 767_13 767_14 2.33333
20 767_14 *774:A 0
21 767_13 767_15 11.9133
22 767_15 *775:A 0
23 767_6 767_16 2.8
24 767_16 767_17 0.266667
25 767_17 *776:A 0
26 767_16 767_18 9.35333
27 767_18 767_19 1.30667
28 767_19 *777:A 0
29 767_18 767_20 14
30 767_20 *778:A 0
31 767_5 767_21 0.933333
32 767_21 *779:A 0
*END
*D_NET *780 0.00394056
*CONN
*I *781:Y O *D BUFX2
*I *782:B I *L 0
*I *783:B I *L 0
*I *784:B I *L 0
*I *785:B I *L 0
*I *786:B I *L 0
*I *787:B I *L 0
*I *788:A I *L 0
*I *789:B I *L 0
*I *790:B I *L 0
*I *791:B I *L 0
*I *792:B I *L 0
*CAP
1 780_1 0.0002124
2 780_2 0.00021504
3 780_3 8.16e-05
4 780_4 0.0001728
5 780_5 8.64e-05
6 780_6 0.00027816
7 780_7 4.08e-05
8 780_8 0.00018192
9 780_9 2.04e-05
10 780_10 0.0002232
11 780_11 0.00069144
12 780_12 2.04e-05
13 780_13 0.00052656
14 780_14 0.00015744
15 780_15 0.00011568
16 780_16 0.0001812
17 780_17 2.688e-05
18 780_18 0.00039648
19 780_19 2.04e-05
20 780_20 0.00029136
*RES
1 *781:Y 780_1 2.56667
2 780_1 780_2 5.97333
3 780_2 780_3 0.933333
4 780_3 *782:B 0
5 780_3 780_4 1.12
6 780_4 780_5 0.56
7 780_5 *783:B 0
8 780_4 780_6 4.06
9 780_6 780_7 0.466667
10 780_7 *784:B 0
11 780_6 780_8 4.38667
12 780_8 780_9 0.233333
13 780_9 *785:B 0
14 780_9 780_10 4.2
15 780_10 *786:B 0
16 780_2 780_11 9.00667
17 780_11 780_12 0.233333
18 780_12 *787:B 0
19 780_12 780_13 11.2933
20 780_13 *788:A 0
21 780_1 780_14 4.17333
22 780_14 780_15 1.54667
23 780_15 *789:B 0
24 780_14 780_16 1.43333
25 780_16 780_17 0.746667
26 780_17 *790:B 0
27 780_16 780_18 6.34667
28 780_18 780_19 0.233333
29 780_19 *791:B 0
30 780_19 780_20 4.76
31 780_20 *792:B 0
*END
*D_NET *793 0.010464
*CONN
*I *794:Q O *D _3957
*I *795:A I *L 0
*I *796:A I *L 0
*I *797:A I *L 0
*I *798:A I *L 0
*I *799:A I *L 0
*I *800:A I *L 0
*I *801:A I *L 0
*I *802:A I *L 0
*I *803:A I *L 0
*I *804:A I *L 0
*I *805:A I *L 0
*CAP
1 793_1 0.00163776
2 793_2 2.04e-05
3 793_3 0.00134136
4 793_4 0.00066864
5 793_5 6.12e-05
6 793_6 2.04e-05
7 793_7 0.00034032
8 793_8 0.0002808
9 793_9 0.00087336
10 793_10 2.04e-05
11 793_11 0.000648
12 793_12 0.00054888
13 793_13 0.00093288
14 793_14 0
15 793_15 0.00026424
16 793_16 0.00046224
17 793_17 0.00095136
18 793_18 0
19 793_19 0.00044856
20 793_20 0.0008652
21 793_21 7.8e-05
*RES
1 *794:Q 793_1 24.2667
2 793_1 793_2 0.233333
3 793_2 *795:A 0
4 793_2 793_3 20.26
5 793_3 793_4 7.97333
6 793_4 793_5 0.7
7 793_5 793_6 0.233333
8 793_6 *796:A 0
9 793_6 793_7 7.58667
10 793_7 793_8 2.13333
11 793_8 *797:A 0
12 793_7 793_9 17.66
13 793_9 793_10 0.233333
14 793_10 *798:A 0
15 793_10 793_11 5.2
16 793_11 793_12 5.98
17 793_12 *799:A 0
18 793_11 793_13 22.9133
19 793_13 793_14 0
20 793_14 *800:A 0
21 793_13 793_15 4.34
22 793_15 793_16 5.50667
23 793_16 *801:A 0
24 793_15 793_17 8.42667
25 793_17 793_18 0
26 793_18 *802:A 0
27 793_17 793_19 5.46
28 793_19 *803:A 0
29 793_4 793_20 15.7667
30 793_20 *804:A 0
31 793_3 793_21 0.606667
32 793_21 *805:A 0
*END
*D_NET *806 0.00314136
*CONN
*I *807:Y O *D CLKBUF1
*I *808:A I *L 0
*I *809:A I *L 0
*I *810:A I *L 0
*I *811:A I *L 0
*I *812:A I *L 0
*I *813:A I *L 0
*I *814:A I *L 0
*I *815:A I *L 0
*CAP
1 806_1 8.4e-06
2 806_2 0.00012816
3 806_3 2.04e-05
4 806_4 0.00035712
5 806_5 2.04e-05
6 806_6 0.00087696
7 806_7 6.048e-05
8 806_8 0.0002088
9 806_9 5.76e-05
10 806_10 0.00079944
11 806_11 2.04e-05
12 806_12 0.0004284
13 806_13 2.04e-05
14 806_14 0.0001344
*RES
1 *807:Y 806_1 0.233333
2 806_1 806_2 2.89333
3 806_2 806_3 0.233333
4 806_3 *808:A 0
5 806_3 806_4 8.58667
6 806_4 806_5 0.233333
7 806_5 *809:A 0
8 806_5 806_6 10.36
9 806_6 *810:A 0
10 806_1 806_7 1.68
11 806_7 806_8 5.13333
12 806_8 *811:A 0
13 806_8 806_9 0.373333
14 806_9 *812:A 0
15 806_7 806_10 9.60667
16 806_10 806_11 0.233333
17 806_11 *813:A 0
18 806_11 806_12 4.9
19 806_12 806_13 0.233333
20 806_13 *814:A 0
21 806_13 806_14 3.73333
22 806_14 *815:A 0
*END
*D_NET *816 0.0035496
*CONN
*I *817:Y O *D CLKBUF1
*I *818:A I *L 0
*I *819:A I *L 0
*I *820:A I *L 0
*I *821:A I *L 0
*I *822:A I *L 0
*I *823:A I *L 0
*I *824:A I *L 0
*I *825:A I *L 0
*CAP
1 816_1 2.04e-05
2 816_2 3.264e-05
3 816_3 0.0006072
4 816_4 0.0002016
5 816_5 6.12e-05
6 816_6 0.00036912
7 816_7 0.00058656
8 816_8 0
9 816_9 0.0003672
10 816_10 8.16e-05
11 816_11 2.04e-05
12 816_12 0.00049272
13 816_13 0.00024864
14 816_14 0.00012864
15 816_15 0.00033168
*RES
1 *817:Y 816_1 0.233333
2 816_1 816_2 0.373333
3 816_2 *818:A 0
4 816_1 816_3 13.5333
5 816_3 816_4 5.6
6 816_4 816_5 0.7
7 816_5 *819:A 0
8 816_4 816_6 5.69333
9 816_6 *820:A 0
10 816_3 816_7 5.89333
11 816_7 816_8 0
12 816_8 *821:A 0
13 816_8 816_9 4.2
14 816_9 816_10 0.933333
15 816_10 816_11 0.233333
16 816_11 *822:A 0
17 816_11 816_12 10.6867
18 816_12 *823:A 0
19 816_9 816_13 6.90667
20 816_13 816_14 2.24
21 816_14 *824:A 0
22 816_13 816_15 3.41333
23 816_15 *825:A 0
*END
*D_NET *826 0.00449088
*CONN
*I *827:Y O *D CLKBUF1
*I *828:A I *L 0
*I *829:A I *L 0
*I *830:A I *L 0
*I *831:A I *L 0
*I *832:A I *L 0
*I *833:A I *L 0
*I *834:A I *L 0
*I *835:A I *L 0
*CAP
1 826_1 6.768e-05
2 826_2 6.048e-05
3 826_3 4.032e-05
4 826_4 0.0004656
5 826_5 0.00013536
6 826_6 0.0002244
7 826_7 0.00063144
8 826_8 0.00054264
9 826_9 5.76e-05
10 826_10 0.00077304
11 826_11 8.16e-05
12 826_12 0.0007752
13 826_13 8.64e-05
14 826_14 0.00054912
*RES
1 *827:Y 826_1 1.21333
2 826_1 826_2 1.68
3 826_2 826_3 1.12
4 826_3 *828:A 0
5 826_2 826_4 5.33333
6 826_4 826_5 2.42667
7 826_5 *829:A 0
8 826_4 826_6 2.56667
9 826_6 *830:A 0
10 826_1 826_7 5.67333
11 826_7 826_8 6.20667
12 826_8 *831:A 0
13 826_8 826_9 0.373333
14 826_9 *832:A 0
15 826_7 826_10 21.14
16 826_10 826_11 0.933333
17 826_11 *833:A 0
18 826_10 826_12 8.86667
19 826_12 826_13 0.56
20 826_13 *834:A 0
21 826_12 826_14 6.12
22 826_14 *835:A 0
*END
*D_NET *836 0.00491328
*CONN
*I *837:Y O *D CLKBUF1
*I *838:A I *L 0
*I *839:A I *L 0
*I *840:A I *L 0
*I *841:A I *L 0
*I *842:A I *L 0
*I *843:A I *L 0
*I *844:A I *L 0
*I *845:A I *L 0
*CAP
1 836_1 0.00091032
2 836_2 0.00057096
3 836_3 2.04e-05
4 836_4 0.00089448
5 836_5 2.04e-05
6 836_6 8.112e-05
7 836_7 4.08e-05
8 836_8 0.00022248
9 836_9 4.08e-05
10 836_10 0.0008016
11 836_11 8.4e-06
12 836_12 2.688e-05
13 836_13 0.00018336
14 836_14 0.00109128
*RES
1 *837:Y 836_1 11.62
2 836_1 *838:A 0
3 836_1 836_2 6.86
4 836_2 836_3 0.233333
5 836_3 *839:A 0
6 836_3 836_4 19.3133
7 836_4 836_5 0.233333
8 836_5 *840:A 0
9 836_5 836_6 1.58667
10 836_6 836_7 0.466667
11 836_7 *841:A 0
12 836_6 836_8 5.18
13 836_8 836_9 0.466667
14 836_9 *842:A 0
15 836_8 836_10 7.4
16 836_10 836_11 0.233333
17 836_11 836_12 0.746667
18 836_12 *843:A 0
19 836_11 836_13 2.42667
20 836_13 *844:A 0
21 836_10 836_14 15.4467
22 836_14 *845:A 0
*END
*D_NET *846 0.00343536
*CONN
*I *847:Y O *D BUFX2
*I *848:A I *L 0
*I *849:A I *L 0
*I *850:A I *L 0
*I *851:A I *L 0
*I *852:A I *L 0
*I *853:A I *L 0
*I *854:A I *L 0
*I *855:A I *L 0
*CAP
1 846_1 2.04e-05
2 846_2 8.784e-05
3 846_3 0
4 846_4 0.00059616
5 846_5 6.12e-05
6 846_6 0.00063816
7 846_7 4.08e-05
8 846_8 0.00013104
9 846_9 0.00012768
10 846_10 6.12e-05
11 846_11 0.00033264
12 846_12 0.00070296
13 846_13 0.00012216
14 846_14 0.00019608
15 846_15 0.00031704
*RES
1 *847:Y 846_1 0.233333
2 846_1 846_2 1.77333
3 846_2 846_3 0
4 846_3 *848:A 0
5 846_3 846_4 9.89333
6 846_4 846_5 0.7
7 846_5 *849:A 0
8 846_4 846_6 8.72667
9 846_6 846_7 0.466667
10 846_7 *850:A 0
11 846_6 846_8 3.64
12 846_8 846_9 3.54667
13 846_9 846_10 0.7
14 846_10 *851:A 0
15 846_9 846_11 4.57333
16 846_11 *852:A 0
17 846_8 846_12 8.63333
18 846_12 *853:A 0
19 846_1 846_13 1.72667
20 846_13 846_14 3.78
21 846_14 *854:A 0
22 846_13 846_15 2.94
23 846_15 *855:A 0
*END
*D_NET *856 0.00286704
*CONN
*I *857:Y O *D BUFX2
*I *858:A I *L 0
*I *859:A I *L 0
*I *860:A I *L 0
*I *861:A I *L 0
*I *862:A I *L 0
*I *863:A I *L 0
*I *864:A I *L 0
*I *865:A I *L 0
*CAP
1 856_1 0.00049584
2 856_2 0.00016176
3 856_3 0.0001224
4 856_4 0.00039984
5 856_5 8.16e-05
6 856_6 0.0002496
7 856_7 0.00010224
8 856_8 0.00028224
9 856_9 0.0001224
10 856_10 0.00074424
11 856_11 2.04e-05
12 856_12 5.76e-05
13 856_13 2.688e-05
*RES
1 *857:Y 856_1 5.37333
2 856_1 856_2 3.82667
3 856_2 856_3 1.4
4 856_3 *858:A 0
5 856_2 856_4 11.1067
6 856_4 856_5 0.933333
7 856_5 *859:A 0
8 856_4 856_6 3.13333
9 856_6 856_7 1.17333
10 856_7 *860:A 0
11 856_6 856_8 7.84
12 856_8 856_9 1.4
13 856_9 *861:A 0
14 856_8 856_10 11.8067
15 856_10 *862:A 0
16 856_1 856_11 0.233333
17 856_11 *863:A 0
18 856_11 856_12 0.373333
19 856_12 *864:A 0
20 856_11 856_13 0.746667
21 856_13 *865:A 0
*END
*D_NET *866 0.00322656
*CONN
*I *867:Y O *D BUFX2
*I *868:A I *L 0
*I *869:A I *L 0
*I *870:A I *L 0
*I *871:A I *L 0
*I *872:A I *L 0
*I *873:A I *L 0
*I *874:A I *L 0
*I *875:A I *L 0
*CAP
1 866_1 2.04e-05
2 866_2 6.768e-05
3 866_3 0
4 866_4 0.00025704
5 866_5 4.08e-05
6 866_6 0.00041568
7 866_7 6.12e-05
8 866_8 0.0005712
9 866_9 0.0003924
10 866_10 2.04e-05
11 866_11 0.0002784
12 866_12 0
13 866_13 0.00025128
14 866_14 0.00031344
15 866_15 0.00053664
*RES
1 *867:Y 866_1 0.233333
2 866_1 866_2 1.21333
3 866_2 866_3 0
4 866_3 *868:A 0
5 866_3 866_4 2.94
6 866_4 866_5 0.466667
7 866_5 *869:A 0
8 866_4 866_6 9.74667
9 866_6 866_7 0.7
10 866_7 *870:A 0
11 866_6 866_8 8.86667
12 866_8 866_9 5.36667
13 866_9 866_10 0.233333
14 866_10 *871:A 0
15 866_10 866_11 3.73333
16 866_11 866_12 0
17 866_12 *872:A 0
18 866_12 866_13 3.31333
19 866_13 *873:A 0
20 866_8 866_14 2.64
21 866_14 *874:A 0
22 866_1 866_15 4.37333
23 866_15 *875:A 0
*END
*D_NET *876 0.003636
*CONN
*I *877:Y O *D BUFX2
*I *878:A I *L 0
*I *879:A I *L 0
*I *880:A I *L 0
*I *881:A I *L 0
*I *882:A I *L 0
*I *883:A I *L 0
*I *884:A I *L 0
*I *885:A I *L 0
*CAP
1 876_1 4.92e-05
2 876_2 0.0002892
3 876_3 0.0001596
4 876_4 0.0005232
5 876_5 6.12e-05
6 876_6 0.0001728
7 876_7 0.0005364
8 876_8 0.00091824
9 876_9 2.04e-05
10 876_10 5.76e-05
11 876_11 0.00049584
12 876_12 2.04e-05
13 876_13 0.00033192
*RES
1 *877:Y 876_1 0.7
2 876_1 876_2 7.7
3 876_2 876_3 1.54
4 876_3 *878:A 0
5 876_2 876_4 6.53333
6 876_4 876_5 0.7
7 876_5 *879:A 0
8 876_5 876_6 1.12
9 876_6 *880:A 0
10 876_4 876_7 7.23333
11 876_7 *881:A 0
12 876_1 876_8 19.5067
13 876_8 876_9 0.233333
14 876_9 *882:A 0
15 876_9 876_10 0.373333
16 876_10 *883:A 0
17 876_9 876_11 6.44
18 876_11 876_12 0.233333
19 876_12 *884:A 0
20 876_12 876_13 5.55333
21 876_13 *885:A 0
*END
*D_NET *886 0.00730248
*CONN
*I *887:Y O *D _3536
*I *888:A I *L 0
*I *889:A I *L 0
*I *890:A I *L 0
*I *891:A I *L 0
*I *892:A I *L 0
*I *893:A I *L 0
*I *894:A I *L 0
*I *895:A I *L 0
*CAP
1 886_1 0.00160992
2 886_2 5.424e-05
3 886_3 0.0006144
4 886_4 0.000102
5 886_5 0.00176904
6 886_6 4.08e-05
7 886_7 0.00029256
8 886_8 0
9 886_9 0.00086544
10 886_10 0.00030984
11 886_11 0.00020232
12 886_12 2.04e-05
13 886_13 0.000906
14 886_14 0.00018192
15 886_15 0.0003336
*RES
1 *887:Y 886_1 21.12
2 886_1 886_2 0.84
3 886_2 *888:A 0
4 886_1 886_3 11.6667
5 886_3 886_4 1.16667
6 886_4 *889:A 0
7 886_3 886_5 37.4733
8 886_5 886_6 0.466667
9 886_6 *890:A 0
10 886_5 886_7 7.79333
11 886_7 886_8 0
12 886_8 *891:A 0
13 886_7 886_9 6.64
14 886_9 886_10 7.60667
15 886_10 *892:A 0
16 886_9 886_11 4.62
17 886_11 886_12 0.233333
18 886_12 *893:A 0
19 886_12 886_13 7.96667
20 886_13 886_14 4.38667
21 886_14 *894:A 0
22 886_13 886_15 7.37333
23 886_15 *895:A 0
*END
*D_NET *896 0.00244632
*CONN
*I *897:Y O *D BUFX2
*I *898:B I *L 0
*I *899:B I *L 0
*I *900:B I *L 0
*I *901:B I *L 0
*I *902:B I *L 0
*I *903:B I *L 0
*I *904:B I *L 0
*I *905:B I *L 0
*CAP
1 896_1 0.00028776
2 896_2 0
3 896_3 6.768e-05
4 896_4 2.04e-05
5 896_5 0.00061824
6 896_6 8.4e-06
7 896_7 0
8 896_8 0.00031104
9 896_9 6.12e-05
10 896_10 0.00029184
11 896_11 4.08e-05
12 896_12 0.0003792
13 896_13 2.04e-05
14 896_14 0.00027168
15 896_15 6.768e-05
*RES
1 *897:Y 896_1 3.31333
2 896_1 896_2 0
3 896_2 *898:B 0
4 896_1 896_3 1.21333
5 896_3 896_4 0.233333
6 896_4 *899:B 0
7 896_4 896_5 17.1733
8 896_5 896_6 0.233333
9 896_6 896_7 0
10 896_7 *900:B 0
11 896_7 896_8 5.97333
12 896_8 896_9 0.7
13 896_9 *901:B 0
14 896_8 896_10 4.10667
15 896_10 896_11 0.466667
16 896_11 *902:B 0
17 896_10 896_12 6.53333
18 896_12 896_13 0.233333
19 896_13 *903:B 0
20 896_13 896_14 3.54667
21 896_14 *904:B 0
22 896_6 896_15 1.21333
23 896_15 *905:B 0
*END
*D_NET *906 0.00304728
*CONN
*I *907:Y O *D BUFX2
*I *908:B I *L 0
*I *909:B I *L 0
*I *910:B I *L 0
*I *911:B I *L 0
*I *912:B I *L 0
*I *913:B I *L 0
*I *914:B I *L 0
*I *915:B I *L 0
*CAP
1 906_1 0.00078024
2 906_2 5.76e-05
3 906_3 0.00023664
4 906_4 9.84e-05
5 906_5 0.00018816
6 906_6 8.4e-06
7 906_7 0
8 906_8 0.0008496
9 906_9 0
10 906_10 6.768e-05
11 906_11 6.768e-05
12 906_12 2.04e-05
13 906_13 0.00047928
14 906_14 4.08e-05
15 906_15 0.0001524
*RES
1 *907:Y 906_1 14.74
2 906_1 906_2 0.373333
3 906_2 *908:B 0
4 906_1 906_3 2.70667
5 906_3 906_4 0.84
6 906_4 *909:B 0
7 906_3 906_5 5.22667
8 906_5 906_6 0.233333
9 906_6 906_7 0
10 906_7 *910:B 0
11 906_7 906_8 10.2667
12 906_8 906_9 0
13 906_9 *911:B 0
14 906_8 906_10 1.21333
15 906_10 *912:B 0
16 906_6 906_11 1.21333
17 906_11 906_12 0.233333
18 906_12 *913:B 0
19 906_12 906_13 10.3133
20 906_13 906_14 0.466667
21 906_14 *914:B 0
22 906_13 906_15 2.00667
23 906_15 *915:B 0
*END
*D_NET *916 0.00242352
*CONN
*I *917:Y O *D BUFX2
*I *918:B I *L 0
*I *919:B I *L 0
*I *920:B I *L 0
*I *921:B I *L 0
*I *922:B I *L 0
*I *923:B I *L 0
*I *924:B I *L 0
*I *925:B I *L 0
*CAP
1 916_1 0.00045
2 916_2 0.00037536
3 916_3 2.04e-05
4 916_4 8.4e-06
5 916_5 2.688e-05
6 916_6 4.08e-05
7 916_7 0.00012096
8 916_8 4.08e-05
9 916_9 0.0002784
10 916_10 0.00024456
11 916_11 4.08e-05
12 916_12 2.688e-05
13 916_13 0.00050448
14 916_14 2.04e-05
15 916_15 0.0002244
*RES
1 *917:Y 916_1 3.76667
2 916_1 916_2 5.16
3 916_2 916_3 0.233333
4 916_3 *918:B 0
5 916_3 916_4 0.233333
6 916_4 916_5 0.746667
7 916_5 916_6 0.466667
8 916_6 *919:B 0
9 916_5 916_7 3.36
10 916_7 916_8 0.466667
11 916_8 *920:B 0
12 916_7 916_9 3.73333
13 916_9 *921:B 0
14 916_4 916_10 3.12667
15 916_10 916_11 0.466667
16 916_11 *922:B 0
17 916_10 916_12 0.746667
18 916_12 *923:B 0
19 916_1 916_13 13.3467
20 916_13 916_14 0.233333
21 916_14 *924:B 0
22 916_14 916_15 2.56667
23 916_15 *925:B 0
*END
*D_NET *926 0.00148536
*CONN
*I *927:Y O *D BUFX2
*I *928:B I *L 0
*I *929:B I *L 0
*I *930:B I *L 0
*I *931:B I *L 0
*I *932:B I *L 0
*I *933:B I *L 0
*I *934:B I *L 0
*I *935:B I *L 0
*CAP
1 926_1 6.96e-05
2 926_2 2.016e-05
3 926_3 0.0001224
4 926_4 0.00019632
5 926_5 2.04e-05
6 926_6 6.768e-05
7 926_7 0
8 926_8 0.00020832
9 926_9 4.08e-05
10 926_10 2.04e-05
11 926_11 0.000408
12 926_12 2.04e-05
13 926_13 6.768e-05
14 926_14 2.688e-05
15 926_15 0.00019632
*RES
1 *927:Y 926_1 0.933333
2 926_1 926_2 0.56
3 926_2 926_3 1.4
4 926_3 *928:B 0
5 926_2 926_4 3.45333
6 926_4 926_5 0.233333
7 926_5 *929:B 0
8 926_5 926_6 1.21333
9 926_6 926_7 0
10 926_7 *930:B 0
11 926_6 926_8 5.78667
12 926_8 926_9 0.466667
13 926_9 926_10 0.233333
14 926_10 *931:B 0
15 926_10 926_11 4.66667
16 926_11 926_12 0.233333
17 926_12 *932:B 0
18 926_12 926_13 1.21333
19 926_13 *933:B 0
20 926_8 926_14 0.746667
21 926_14 *934:B 0
22 926_1 926_15 3.45333
23 926_15 *935:B 0
*END
*D_NET *936 0.00267888
*CONN
*I *937:Y O *D BUFX2
*I *938:B I *L 0
*I *939:B I *L 0
*I *940:B I *L 0
*I *941:B I *L 0
*I *942:B I *L 0
*I *943:B I *L 0
*I *944:B I *L 0
*I *945:B I *L 0
*CAP
1 936_1 2.04e-05
2 936_2 0.00021696
3 936_3 5.76e-05
4 936_4 7.44e-05
5 936_5 8.4e-06
6 936_6 0.00033048
7 936_7 0.0001584
8 936_8 0.00116256
9 936_9 0.00017976
10 936_10 0.00015744
11 936_11 0
12 936_12 0.0001836
13 936_13 6.12e-05
14 936_14 6.768e-05
*RES
1 *937:Y 936_1 0.233333
2 936_1 936_2 3.36
3 936_2 936_3 0.373333
4 936_3 *938:B 0
5 936_2 936_4 1.4
6 936_4 *939:B 0
7 936_1 936_5 0.233333
8 936_5 936_6 7.51333
9 936_6 *940:B 0
10 936_6 936_7 1.02667
11 936_7 *941:B 0
12 936_5 936_8 32.2933
13 936_8 936_9 2.1
14 936_9 *942:B 0
15 936_8 936_10 1.37333
16 936_10 936_11 0
17 936_11 *943:B 0
18 936_11 936_12 2.1
19 936_12 936_13 0.7
20 936_13 *944:B 0
21 936_12 936_14 1.21333
22 936_14 *945:B 0
*END
*D_NET *946 0.00229704
*CONN
*I *947:Y O *D BUFX2
*I *948:B I *L 0
*I *949:B I *L 0
*I *950:B I *L 0
*I *951:B I *L 0
*I *952:B I *L 0
*I *953:B I *L 0
*I *954:B I *L 0
*I *955:B I *L 0
*CAP
1 946_1 2.04e-05
2 946_2 0.0001764
3 946_3 0
4 946_4 3.36e-05
5 946_5 9.84e-05
6 946_6 8.088e-05
7 946_7 4.08e-05
8 946_8 0.000204
9 946_9 0.00015552
10 946_10 0.0001344
11 946_11 0
12 946_12 8.112e-05
13 946_13 0.00120384
14 946_14 4.08e-05
15 946_15 2.688e-05
*RES
1 *947:Y 946_1 0.233333
2 946_1 946_2 2.56667
3 946_2 946_3 0
4 946_3 *948:B 0
5 946_2 946_4 0.933333
6 946_4 946_5 0.84
7 946_5 *949:B 0
8 946_4 946_6 1.91333
9 946_6 946_7 0.466667
10 946_7 *950:B 0
11 946_6 946_8 2.33333
12 946_8 *951:B 0
13 946_1 946_9 2.98667
14 946_9 946_10 3.73333
15 946_10 946_11 0
16 946_11 *952:B 0
17 946_10 946_12 1.58667
18 946_12 *953:B 0
19 946_9 946_13 11.44
20 946_13 946_14 0.466667
21 946_14 *954:B 0
22 946_13 946_15 0.746667
23 946_15 *955:B 0
*END
*D_NET *956 0.00222816
*CONN
*I *957:Y O *D BUFX2
*I *958:B I *L 0
*I *959:B I *L 0
*I *960:B I *L 0
*I *961:B I *L 0
*I *962:B I *L 0
*I *963:B I *L 0
*I *964:B I *L 0
*I *965:B I *L 0
*CAP
1 956_1 8.4e-06
2 956_2 6.72e-05
3 956_3 7.464e-05
4 956_4 2.04e-05
5 956_5 0.00094416
6 956_6 9.84e-05
7 956_7 3.36e-05
8 956_8 0
9 956_9 0.0002016
10 956_10 0
11 956_11 6.768e-05
12 956_12 0.0001836
13 956_13 0.0004404
14 956_14 2.04e-05
15 956_15 6.768e-05
*RES
1 *957:Y 956_1 0.233333
2 956_1 956_2 1.86667
3 956_2 956_3 1.07333
4 956_3 956_4 0.233333
5 956_4 *958:B 0
6 956_4 956_5 12.2267
7 956_5 956_6 0.84
8 956_6 *959:B 0
9 956_5 956_7 0.933333
10 956_7 956_8 0
11 956_8 *960:B 0
12 956_7 956_9 5.6
13 956_9 956_10 0
14 956_10 *961:B 0
15 956_9 956_11 1.21333
16 956_11 *962:B 0
17 956_2 956_12 2.1
18 956_12 *963:B 0
19 956_1 956_13 5.36667
20 956_13 956_14 0.233333
21 956_14 *964:B 0
22 956_14 956_15 1.21333
23 956_15 *965:B 0
*END
*D_NET *966 0.00227136
*CONN
*I *967:Y O *D BUFX2
*I *968:B I *L 0
*I *969:B I *L 0
*I *970:B I *L 0
*I *971:B I *L 0
*I *972:B I *L 0
*I *973:B I *L 0
*I *974:B I *L 0
*I *975:B I *L 0
*CAP
1 966_1 8.4e-06
2 966_2 0.0001284
3 966_3 2.04e-05
4 966_4 6.768e-05
5 966_5 0
6 966_6 0.0002304
7 966_7 0.00012168
8 966_8 0.0001668
9 966_9 0.00088824
10 966_10 2.04e-05
11 966_11 8.4e-06
12 966_12 6.768e-05
13 966_13 0.0004752
14 966_14 0
15 966_15 6.768e-05
*RES
1 *967:Y 966_1 0.233333
2 966_1 966_2 2.56667
3 966_2 966_3 0.233333
4 966_3 *968:B 0
5 966_3 966_4 1.21333
6 966_4 966_5 0
7 966_5 *969:B 0
8 966_5 966_6 3.73333
9 966_6 966_7 2.38
10 966_7 *970:B 0
11 966_6 966_8 1.43333
12 966_8 *971:B 0
13 966_1 966_9 18.14
14 966_9 966_10 0.233333
15 966_10 *972:B 0
16 966_10 966_11 0.233333
17 966_11 966_12 1.21333
18 966_12 *973:B 0
19 966_11 966_13 6.8
20 966_13 966_14 0
21 966_14 *974:B 0
22 966_13 966_15 1.21333
23 966_15 *975:B 0
*END
*D_NET *976 0.0101765
*CONN
*I *977:Y O *D _3668
*I *978:A I *L 0
*I *979:A I *L 0
*I *980:A I *L 0
*I *981:A I *L 0
*I *982:A I *L 0
*I *983:A I *L 0
*I *984:A I *L 0
*I *985:A I *L 0
*CAP
1 976_1 0.00280176
2 976_2 0.00012216
3 976_3 0.00059184
4 976_4 2.04e-05
5 976_5 0.00056304
6 976_6 0.00025056
7 976_7 0.00136416
8 976_8 0.0001632
9 976_9 0.00045024
10 976_10 0.000768
11 976_11 0
12 976_12 0.00024576
13 976_13 0.0008052
14 976_14 0.00014184
15 976_15 0.00188832
*RES
1 *977:Y 976_1 34.6933
2 976_1 976_2 1.72667
3 976_2 *978:A 0
4 976_1 976_3 6.90667
5 976_3 976_4 0.233333
6 976_4 *979:A 0
7 976_4 976_5 6.44
8 976_5 976_6 4.29333
9 976_6 *980:A 0
10 976_5 976_7 37.8933
11 976_7 976_8 1.86667
12 976_8 *981:A 0
13 976_7 976_9 12.5067
14 976_9 976_10 18.6667
15 976_10 976_11 0
16 976_11 *982:A 0
17 976_10 976_12 5.6
18 976_12 *983:A 0
19 976_9 976_13 5.76667
20 976_13 976_14 2.94
21 976_14 *984:A 0
22 976_13 976_15 16.7867
23 976_15 *985:A 0
*END
*D_NET *986 0.00320592
*CONN
*I *987:Y O *D BUFX2
*I *988:B I *L 0
*I *989:B I *L 0
*I *990:B I *L 0
*I *991:B I *L 0
*I *992:B I *L 0
*I *993:B I *L 0
*I *994:B I *L 0
*I *995:B I *L 0
*CAP
1 986_1 0.00014184
2 986_2 0.000102
3 986_3 2.688e-05
4 986_4 0.0001428
5 986_5 2.016e-05
6 986_6 0.0001224
7 986_7 3.6e-05
8 986_8 5.76e-05
9 986_9 8.64e-05
10 986_10 0.00086496
11 986_11 0.00015528
12 986_12 0.00113856
13 986_13 5.4e-05
14 986_14 0.000102
15 986_15 0.00015504
*RES
1 *987:Y 986_1 2.94
2 986_1 986_2 1.16667
3 986_2 *988:B 0
4 986_1 986_3 0.746667
5 986_3 986_4 1.63333
6 986_4 *989:B 0
7 986_3 986_5 0.56
8 986_5 986_6 1.4
9 986_6 986_7 0.233333
10 986_7 986_8 0.373333
11 986_8 *990:B 0
12 986_7 986_9 0.56
13 986_9 *991:B 0
14 986_6 986_10 6.42667
15 986_10 986_11 3.31333
16 986_11 *992:B 0
17 986_10 986_12 9.02667
18 986_12 *993:B 0
19 986_5 986_13 1.16667
20 986_13 986_14 1.16667
21 986_14 *994:B 0
22 986_13 986_15 1.77333
23 986_15 *995:B 0
*END
*D_NET *996 0.00229368
*CONN
*I *997:Y O *D BUFX2
*I *998:B I *L 0
*I *999:B I *L 0
*I *1000:B I *L 0
*I *1001:B I *L 0
*I *1002:B I *L 0
*I *1003:B I *L 0
*I *1004:B I *L 0
*I *1005:B I *L 0
*CAP
1 996_1 2.04e-05
2 996_2 0.0003468
3 996_3 0.0002244
4 996_4 9.84e-05
5 996_5 3.36e-05
6 996_6 0.0002352
7 996_7 4.08e-05
8 996_8 2.688e-05
9 996_9 0
10 996_10 0.0004956
11 996_11 2.04e-05
12 996_12 0.00025704
13 996_13 0.00026976
14 996_14 0
15 996_15 0.0002244
*RES
1 *997:Y 996_1 0.233333
2 996_1 996_2 3.96667
3 996_2 996_3 2.56667
4 996_3 996_4 0.84
5 996_4 *998:B 0
6 996_3 996_5 0.933333
7 996_5 *999:B 0
8 996_2 996_6 6.53333
9 996_6 996_7 0.466667
10 996_7 *1000:B 0
11 996_6 996_8 0.746667
12 996_8 996_9 0
13 996_9 *1001:B 0
14 996_9 996_10 6.76667
15 996_10 996_11 0.233333
16 996_11 *1002:B 0
17 996_11 996_12 2.94
18 996_12 *1003:B 0
19 996_1 996_13 6.16
20 996_13 996_14 0
21 996_14 *1004:B 0
22 996_14 996_15 2.56667
23 996_15 *1005:B 0
*END
*D_NET *1006 0.00180072
*CONN
*I *1007:Y O *D BUFX2
*I *1008:B I *L 0
*I *1009:B I *L 0
*I *1010:B I *L 0
*I *1011:B I *L 0
*I *1012:B I *L 0
*I *1013:B I *L 0
*I *1014:B I *L 0
*I *1015:B I *L 0
*CAP
1 1006_1 8.4e-06
2 1006_2 0.00013512
3 1006_3 0.0001584
4 1006_4 0.00022848
5 1006_5 6.12e-05
6 1006_6 2.688e-05
7 1006_7 4.08e-05
8 1006_8 0.00018816
9 1006_9 6.12e-05
10 1006_10 0.0001584
11 1006_11 0.0006048
12 1006_12 4.08e-05
13 1006_13 8.808e-05
*RES
1 *1007:Y 1006_1 0.233333
2 1006_1 1006_2 2.75333
3 1006_2 *1008:B 0
4 1006_2 1006_3 1.02667
5 1006_3 *1009:B 0
6 1006_1 1006_4 6.34667
7 1006_4 1006_5 0.7
8 1006_5 *1010:B 0
9 1006_4 1006_6 0.746667
10 1006_6 1006_7 0.466667
11 1006_7 *1011:B 0
12 1006_6 1006_8 5.22667
13 1006_8 1006_9 0.7
14 1006_9 *1012:B 0
15 1006_9 1006_10 1.02667
16 1006_10 *1013:B 0
17 1006_8 1006_11 16.8
18 1006_11 1006_12 0.466667
19 1006_12 *1014:B 0
20 1006_11 1006_13 1.44667
21 1006_13 *1015:B 0
*END
*D_NET *1016 0.00264312
*CONN
*I *1017:Y O *D BUFX2
*I *1018:B I *L 0
*I *1019:B I *L 0
*I *1020:B I *L 0
*I *1021:B I *L 0
*I *1022:B I *L 0
*I *1023:B I *L 0
*I *1024:B I *L 0
*I *1025:B I *L 0
*CAP
1 1016_1 0
2 1016_2 0.00043368
3 1016_3 4.08e-05
4 1016_4 4.08e-05
5 1016_5 9.12e-05
6 1016_6 0.00036504
7 1016_7 0
8 1016_8 6.768e-05
9 1016_9 0.00047136
10 1016_10 0.0003468
11 1016_11 2.04e-05
12 1016_12 6.768e-05
13 1016_13 0.00053016
14 1016_14 8.64e-05
15 1016_15 8.112e-05
*RES
1 *1017:Y 1016_1 0
2 1016_1 1016_2 11.7133
3 1016_2 1016_3 0.466667
4 1016_3 1016_4 0.466667
5 1016_4 *1018:B 0
6 1016_3 1016_5 1.30667
7 1016_5 *1019:B 0
8 1016_2 1016_6 3.27333
9 1016_6 1016_7 0
10 1016_7 *1020:B 0
11 1016_6 1016_8 1.21333
12 1016_8 *1021:B 0
13 1016_1 1016_9 11.76
14 1016_9 1016_10 3.96667
15 1016_10 1016_11 0.233333
16 1016_11 *1022:B 0
17 1016_11 1016_12 1.21333
18 1016_12 *1023:B 0
19 1016_9 1016_13 6.39333
20 1016_13 1016_14 0.56
21 1016_14 *1024:B 0
22 1016_13 1016_15 1.58667
23 1016_15 *1025:B 0
*END
*D_NET *1026 0.0015948
*CONN
*I *1027:Y O *D BUFX2
*I *1028:B I *L 0
*I *1029:B I *L 0
*I *1030:B I *L 0
*I *1031:B I *L 0
*I *1032:B I *L 0
*I *1033:B I *L 0
*I *1034:B I *L 0
*I *1035:B I *L 0
*CAP
1 1026_1 0.00042744
2 1026_2 0.00019584
3 1026_3 9.84e-05
4 1026_4 3.36e-05
5 1026_5 4.08e-05
6 1026_6 9.84e-05
7 1026_7 3.36e-05
8 1026_8 0.00025536
9 1026_9 4.08e-05
10 1026_10 2.688e-05
11 1026_11 6.12e-05
12 1026_12 5.376e-05
13 1026_13 0.0001476
14 1026_14 8.112e-05
*RES
1 *1027:Y 1026_1 6.20667
2 1026_1 1026_2 2.24
3 1026_2 1026_3 0.84
4 1026_3 *1028:B 0
5 1026_2 1026_4 0.933333
6 1026_4 *1029:B 0
7 1026_1 1026_5 0.466667
8 1026_5 1026_6 0.84
9 1026_6 *1030:B 0
10 1026_5 1026_7 0.933333
11 1026_7 *1031:B 0
12 1026_1 1026_8 7.09333
13 1026_8 1026_9 0.466667
14 1026_9 *1032:B 0
15 1026_8 1026_10 0.746667
16 1026_10 1026_11 0.7
17 1026_11 *1033:B 0
18 1026_10 1026_12 1.49333
19 1026_12 1026_13 1.26
20 1026_13 *1034:B 0
21 1026_12 1026_14 1.58667
22 1026_14 *1035:B 0
*END
*D_NET *1036 0.00424416
*CONN
*I *1037:Y O *D BUFX2
*I *1038:B I *L 0
*I *1039:B I *L 0
*I *1040:B I *L 0
*I *1041:B I *L 0
*I *1042:B I *L 0
*I *1043:B I *L 0
*I *1044:B I *L 0
*I *1045:B I *L 0
*CAP
1 1036_1 0.00030624
2 1036_2 0.00027552
3 1036_3 0.00017544
4 1036_4 2.04e-05
5 1036_5 0.00040704
6 1036_6 0.000102
7 1036_7 0.00014928
8 1036_8 0.00021288
9 1036_9 2.04e-05
10 1036_10 0.000888
11 1036_11 9.84e-05
12 1036_12 3.36e-05
13 1036_13 0.00139656
14 1036_14 0.0001584
*RES
1 *1037:Y 1036_1 3.64
2 1036_1 1036_2 7.65333
3 1036_2 1036_3 2.00667
4 1036_3 1036_4 0.233333
5 1036_4 *1038:B 0
6 1036_4 1036_5 5.97333
7 1036_5 1036_6 1.16667
8 1036_6 *1039:B 0
9 1036_5 1036_7 2.14667
10 1036_7 *1040:B 0
11 1036_2 1036_8 4.24667
12 1036_8 1036_9 0.233333
13 1036_9 *1041:B 0
14 1036_9 1036_10 14
15 1036_10 1036_11 0.84
16 1036_11 *1042:B 0
17 1036_10 1036_12 0.933333
18 1036_12 *1043:B 0
19 1036_1 1036_13 26.46
20 1036_13 *1044:B 0
21 1036_13 1036_14 1.02667
22 1036_14 *1045:B 0
*END
*D_NET *1046 0.00225504
*CONN
*I *1047:Y O *D BUFX2
*I *1048:B I *L 0
*I *1049:B I *L 0
*I *1050:B I *L 0
*I *1051:B I *L 0
*I *1052:B I *L 0
*I *1053:B I *L 0
*I *1054:B I *L 0
*I *1055:B I *L 0
*CAP
1 1046_1 0.00060504
2 1046_2 0.0001428
3 1046_3 4.08e-05
4 1046_4 2.688e-05
5 1046_5 8.16e-05
6 1046_6 2.04e-05
7 1046_7 0.0002244
8 1046_8 4.08e-05
9 1046_9 2.688e-05
10 1046_10 0
11 1046_11 0.000204
12 1046_12 0.00059016
13 1046_13 0.0001224
14 1046_14 0.00012888
*RES
1 *1047:Y 1046_1 16.4733
2 1046_1 1046_2 1.63333
3 1046_2 1046_3 0.466667
4 1046_3 *1048:B 0
5 1046_2 1046_4 0.746667
6 1046_4 *1049:B 0
7 1046_1 1046_5 0.933333
8 1046_5 1046_6 0.233333
9 1046_6 *1050:B 0
10 1046_6 1046_7 2.56667
11 1046_7 1046_8 0.466667
12 1046_8 *1051:B 0
13 1046_7 1046_9 0.746667
14 1046_9 1046_10 0
15 1046_10 *1052:B 0
16 1046_10 1046_11 2.33333
17 1046_11 *1053:B 0
18 1046_1 1046_12 8.72667
19 1046_12 1046_13 1.4
20 1046_13 *1054:B 0
21 1046_12 1046_14 1.91333
22 1046_14 *1055:B 0
*END
*D_NET *1056 0.0017292
*CONN
*I *1057:Y O *D BUFX2
*I *1058:B I *L 0
*I *1059:B I *L 0
*I *1060:B I *L 0
*I *1061:B I *L 0
*I *1062:B I *L 0
*I *1063:B I *L 0
*I *1064:B I *L 0
*I *1065:B I *L 0
*CAP
1 1056_1 4.92e-05
2 1056_2 6.048e-05
3 1056_3 5.76e-05
4 1056_4 7.44e-05
5 1056_5 2.04e-05
6 1056_6 0.0001344
7 1056_7 8.736e-05
8 1056_8 0.0001056
9 1056_9 1.344e-05
10 1056_10 0.00051072
11 1056_11 0.0002004
12 1056_12 0.000156
13 1056_13 0.0001008
14 1056_14 0.0001584
*RES
1 *1057:Y 1056_1 0.7
2 1056_1 1056_2 1.68
3 1056_2 1056_3 0.373333
4 1056_3 *1058:B 0
5 1056_2 1056_4 1.4
6 1056_4 1056_5 0.233333
7 1056_5 *1059:B 0
8 1056_5 1056_6 3.73333
9 1056_6 1056_7 2.42667
10 1056_7 *1060:B 0
11 1056_6 1056_8 0.733333
12 1056_8 1056_9 0.373333
13 1056_9 *1061:B 0
14 1056_8 1056_10 7.18667
15 1056_10 1056_11 2.00667
16 1056_11 *1062:B 0
17 1056_10 1056_12 2.33333
18 1056_12 *1063:B 0
19 1056_1 1056_13 2.8
20 1056_13 *1064:B 0
21 1056_13 1056_14 1.02667
22 1056_14 *1065:B 0
*END
*D_NET *1066 0.002304
*CONN
*I *1067:Y O *D CLKBUF1
*I *1068:CLK I *L 0
*I *1069:CLK I *L 0
*I *1070:CLK I *L 0
*I *1071:CLK I *L 0
*I *1072:CLK I *L 0
*I *1073:CLK I *L 0
*I *1074:CLK I *L 0
*I *1075:CLK I *L 0
*CAP
1 1066_1 0.00020328
2 1066_2 0.0001632
3 1066_3 4.08e-05
4 1066_4 0.00020856
5 1066_5 4.08e-05
6 1066_6 0.00046872
7 1066_7 0.00022944
8 1066_8 2.04e-05
9 1066_9 0.0001308
10 1066_10 4.032e-05
11 1066_11 0.00036672
12 1066_12 2.04e-05
13 1066_13 0.00017544
14 1066_14 2.04e-05
15 1066_15 0.00017472
*RES
1 *1067:Y 1066_1 3.31333
2 1066_1 1066_2 1.86667
3 1066_2 1066_3 0.466667
4 1066_3 *1068:CLK 0
5 1066_2 1066_4 5.46
6 1066_4 1066_5 0.466667
7 1066_5 *1069:CLK 0
8 1066_4 1066_6 6.02
9 1066_6 *1070:CLK 0
10 1066_1 1066_7 5.04
11 1066_7 1066_8 0.233333
12 1066_8 *1071:CLK 0
13 1066_8 1066_9 1.63333
14 1066_9 1066_10 1.12
15 1066_10 *1072:CLK 0
16 1066_9 1066_11 4.85333
17 1066_11 1066_12 0.233333
18 1066_12 *1073:CLK 0
19 1066_12 1066_13 2.00667
20 1066_13 1066_14 0.233333
21 1066_14 *1074:CLK 0
22 1066_14 1066_15 4.85333
23 1066_15 *1075:CLK 0
*END
*D_NET *1076 0.00234984
*CONN
*I *1077:Y O *D CLKBUF1
*I *1078:CLK I *L 0
*I *1079:CLK I *L 0
*I *1080:CLK I *L 0
*I *1081:CLK I *L 0
*I *1082:CLK I *L 0
*I *1083:CLK I *L 0
*I *1084:CLK I *L 0
*I *1085:CLK I *L 0
*CAP
1 1076_1 0.00036552
2 1076_2 2.04e-05
3 1076_3 0.0001008
4 1076_4 0.0001008
5 1076_5 0
6 1076_6 0.00016968
7 1076_7 0.0004284
8 1076_8 2.04e-05
9 1076_9 0.00026304
10 1076_10 8.16e-05
11 1076_11 0.000162
12 1076_12 0
13 1076_13 0.00023664
14 1076_14 0.00040056
*RES
1 *1077:Y 1076_1 6.48667
2 1076_1 1076_2 0.233333
3 1076_2 *1078:CLK 0
4 1076_2 1076_3 2.8
5 1076_3 1076_4 2.8
6 1076_4 1076_5 0
7 1076_5 *1079:CLK 0
8 1076_5 1076_6 2.38
9 1076_6 *1080:CLK 0
10 1076_3 1076_7 4.9
11 1076_7 1076_8 0.233333
12 1076_8 *1081:CLK 0
13 1076_8 1076_9 5.97333
14 1076_9 1076_10 0.933333
15 1076_10 *1082:CLK 0
16 1076_9 1076_11 3.5
17 1076_11 1076_12 0
18 1076_12 *1083:CLK 0
19 1076_12 1076_13 4.57333
20 1076_13 *1084:CLK 0
21 1076_12 1076_14 5.46
22 1076_14 *1085:CLK 0
*END
*D_NET *1086 0.00302832
*CONN
*I *1087:Y O *D CLKBUF1
*I *1088:CLK I *L 0
*I *1089:CLK I *L 0
*I *1090:CLK I *L 0
*I *1091:CLK I *L 0
*I *1092:CLK I *L 0
*I *1093:CLK I *L 0
*I *1094:CLK I *L 0
*I *1095:CLK I *L 0
*CAP
1 1086_1 0.00038664
2 1086_2 0
3 1086_3 0.0007344
4 1086_4 2.04e-05
5 1086_5 0.00018312
6 1086_6 2.04e-05
7 1086_7 0.0003348
8 1086_8 0.00018144
9 1086_9 0
10 1086_10 0.00016968
11 1086_11 2.04e-05
12 1086_12 0.00037368
13 1086_13 0.00020304
14 1086_14 7.392e-05
15 1086_15 0.0003264
*RES
1 *1087:Y 1086_1 5.74
2 1086_1 1086_2 0
3 1086_2 *1088:CLK 0
4 1086_2 1086_3 8.4
5 1086_3 1086_4 0.233333
6 1086_4 *1089:CLK 0
7 1086_4 1086_5 2.75333
8 1086_5 1086_6 0.233333
9 1086_6 *1090:CLK 0
10 1086_6 1086_7 3.96667
11 1086_7 1086_8 5.04
12 1086_8 1086_9 0
13 1086_9 *1091:CLK 0
14 1086_9 1086_10 2.38
15 1086_10 1086_11 0.233333
16 1086_11 *1092:CLK 0
17 1086_11 1086_12 4.71333
18 1086_12 *1093:CLK 0
19 1086_7 1086_13 3.64
20 1086_13 1086_14 2.05333
21 1086_14 *1094:CLK 0
22 1086_13 1086_15 3.73333
23 1086_15 *1095:CLK 0
*END
*D_NET *1096 0.00391968
*CONN
*I *1097:Y O *D CLKBUF1
*I *1098:CLK I *L 0
*I *1099:CLK I *L 0
*I *1100:CLK I *L 0
*I *1101:CLK I *L 0
*I *1102:CLK I *L 0
*I *1103:CLK I *L 0
*I *1104:CLK I *L 0
*I *1105:CLK I *L 0
*CAP
1 1096_1 0.0007056
2 1096_2 2.04e-05
3 1096_3 0.00017544
4 1096_4 2.04e-05
5 1096_5 0.00038688
6 1096_6 0
7 1096_7 0.00017544
8 1096_8 2.04e-05
9 1096_9 0.00037368
10 1096_10 0.00039768
11 1096_11 4.08e-05
12 1096_12 6.744e-05
13 1096_13 0.00055056
14 1096_14 0.00098496
*RES
1 *1097:Y 1096_1 8.4
2 1096_1 1096_2 0.233333
3 1096_2 *1098:CLK 0
4 1096_2 1096_3 2.00667
5 1096_3 1096_4 0.233333
6 1096_4 *1099:CLK 0
7 1096_4 1096_5 5.41333
8 1096_5 1096_6 0
9 1096_6 *1100:CLK 0
10 1096_6 1096_7 2.00667
11 1096_7 1096_8 0.233333
12 1096_8 *1101:CLK 0
13 1096_8 1096_9 4.71333
14 1096_9 *1102:CLK 0
15 1096_2 1096_10 9.38
16 1096_10 1096_11 0.466667
17 1096_11 *1103:CLK 0
18 1096_10 1096_12 1.54
19 1096_12 1096_13 6.62667
20 1096_13 *1104:CLK 0
21 1096_12 1096_14 12.6933
22 1096_14 *1105:CLK 0
*END
*D_NET *1106 0.00242952
*CONN
*I *1107:Y O *D CLKBUF1
*I *1108:CLK I *L 0
*I *1109:CLK I *L 0
*I *1110:CLK I *L 0
*I *1111:CLK I *L 0
*I *1112:CLK I *L 0
*I *1113:CLK I *L 0
*I *1114:CLK I *L 0
*I *1115:CLK I *L 0
*CAP
1 1106_1 0.00022224
2 1106_2 9.504e-05
3 1106_3 2.04e-05
4 1106_4 0.00017544
5 1106_5 2.04e-05
6 1106_6 0.00016128
7 1106_7 0.0001332
8 1106_8 1.344e-05
9 1106_9 0.00047016
10 1106_10 0.00010752
11 1106_11 0.00032616
12 1106_12 0.00019584
13 1106_13 2.04e-05
14 1106_14 0.00038016
15 1106_15 8.784e-05
*RES
1 *1107:Y 1106_1 5.50667
2 1106_1 1106_2 1.30667
3 1106_2 1106_3 0.233333
4 1106_3 *1108:CLK 0
5 1106_3 1106_4 2.00667
6 1106_4 1106_5 0.233333
7 1106_5 *1109:CLK 0
8 1106_5 1106_6 4.48
9 1106_6 *1110:CLK 0
10 1106_1 1106_7 1.1
11 1106_7 1106_8 0.373333
12 1106_8 *1111:CLK 0
13 1106_7 1106_9 3.86
14 1106_9 1106_10 2.98667
15 1106_10 *1112:CLK 0
16 1106_9 1106_11 4.06
17 1106_11 1106_12 2.24
18 1106_12 1106_13 0.233333
19 1106_13 *1113:CLK 0
20 1106_13 1106_14 5.22667
21 1106_14 *1114:CLK 0
22 1106_11 1106_15 1.77333
23 1106_15 *1115:CLK 0
*END
*D_NET *1116 0.00240504
*CONN
*I *1117:Y O *D CLKBUF1
*I *1118:CLK I *L 0
*I *1119:CLK I *L 0
*I *1120:CLK I *L 0
*I *1121:CLK I *L 0
*I *1122:CLK I *L 0
*I *1123:CLK I *L 0
*I *1124:CLK I *L 0
*I *1125:CLK I *L 0
*CAP
1 1116_1 0.000294
2 1116_2 0.00019536
3 1116_3 2.04e-05
4 1116_4 0.00037368
5 1116_5 2.04e-05
6 1116_6 0.00017544
7 1116_7 0.00032352
8 1116_8 4.08e-05
9 1116_9 0.00025872
10 1116_10 0.00010776
11 1116_11 6.12e-05
12 1116_12 8.16e-05
13 1116_13 0.0001812
14 1116_14 5.424e-05
15 1116_15 0.00021672
*RES
1 *1117:Y 1116_1 3.5
2 1116_1 1116_2 4.76
3 1116_2 1116_3 0.233333
4 1116_3 *1118:CLK 0
5 1116_3 1116_4 4.71333
6 1116_4 1116_5 0.233333
7 1116_5 *1119:CLK 0
8 1116_5 1116_6 2.00667
9 1116_6 *1120:CLK 0
10 1116_1 1116_7 7.65333
11 1116_7 1116_8 0.466667
12 1116_8 *1121:CLK 0
13 1116_7 1116_9 7.18667
14 1116_9 1116_10 2.66
15 1116_10 1116_11 0.7
16 1116_11 *1122:CLK 0
17 1116_10 1116_12 0.933333
18 1116_12 *1123:CLK 0
19 1116_9 1116_13 1.43333
20 1116_13 1116_14 0.84
21 1116_14 *1124:CLK 0
22 1116_13 1116_15 3.68667
23 1116_15 *1125:CLK 0
*END
*D_NET *1126 0.00222264
*CONN
*I *1127:Y O *D CLKBUF1
*I *1128:CLK I *L 0
*I *1129:CLK I *L 0
*I *1130:CLK I *L 0
*I *1131:CLK I *L 0
*I *1132:CLK I *L 0
*I *1133:CLK I *L 0
*I *1134:CLK I *L 0
*I *1135:CLK I *L 0
*CAP
1 1126_1 0.00012144
2 1126_2 0
3 1126_3 0.00016968
4 1126_4 2.04e-05
5 1126_5 0.000192
6 1126_6 0.00012888
7 1126_7 8.16e-05
8 1126_8 0.00022848
9 1126_9 8.16e-05
10 1126_10 0.00033912
11 1126_11 0.0001344
12 1126_12 0.0001632
13 1126_13 0.00032472
14 1126_14 2.04e-05
15 1126_15 0.00021672
*RES
1 *1127:Y 1126_1 2.70667
2 1126_1 1126_2 0
3 1126_2 *1128:CLK 0
4 1126_2 1126_3 2.38
5 1126_3 1126_4 0.233333
6 1126_4 *1129:CLK 0
7 1126_4 1126_5 2.33333
8 1126_5 1126_6 1.91333
9 1126_6 1126_7 0.933333
10 1126_7 *1130:CLK 0
11 1126_6 1126_8 6.34667
12 1126_8 1126_9 0.933333
13 1126_9 *1131:CLK 0
14 1126_8 1126_10 5.08667
15 1126_10 *1132:CLK 0
16 1126_5 1126_11 3.73333
17 1126_11 1126_12 1.86667
18 1126_12 *1133:CLK 0
19 1126_11 1126_13 6.02
20 1126_13 1126_14 0.233333
21 1126_14 *1134:CLK 0
22 1126_14 1126_15 3.68667
23 1126_15 *1135:CLK 0
*END
*D_NET *1136 0.00251736
*CONN
*I *1137:Y O *D CLKBUF1
*I *1138:CLK I *L 0
*I *1139:CLK I *L 0
*I *1140:CLK I *L 0
*I *1141:CLK I *L 0
*I *1142:CLK I *L 0
*I *1143:CLK I *L 0
*I *1144:CLK I *L 0
*I *1145:CLK I *L 0
*CAP
1 1136_1 4.92e-05
2 1136_2 1.344e-05
3 1136_3 0.00010176
4 1136_4 0.0003672
5 1136_5 2.04e-05
6 1136_6 0.000516
7 1136_7 0.00022848
8 1136_8 6.12e-05
9 1136_9 0.0001008
10 1136_10 8.064e-05
11 1136_11 6.12e-05
12 1136_12 2.04e-05
13 1136_13 0.00040728
14 1136_14 0.00010176
15 1136_15 0.0003876
*RES
1 *1137:Y 1136_1 0.7
2 1136_1 1136_2 0.373333
3 1136_2 1136_3 1.49333
4 1136_3 *1138:CLK 0
5 1136_2 1136_4 4.2
6 1136_4 1136_5 0.233333
7 1136_5 *1139:CLK 0
8 1136_5 1136_6 7
9 1136_6 *1140:CLK 0
10 1136_1 1136_7 6.34667
11 1136_7 1136_8 0.7
12 1136_8 *1141:CLK 0
13 1136_7 1136_9 2.8
14 1136_9 1136_10 2.24
15 1136_10 1136_11 0.7
16 1136_11 1136_12 0.233333
17 1136_12 *1142:CLK 0
18 1136_12 1136_13 5.64667
19 1136_13 *1143:CLK 0
20 1136_10 1136_14 1.49333
21 1136_14 *1144:CLK 0
22 1136_9 1136_15 4.43333
23 1136_15 *1145:CLK 0
*END
*D_NET *1146 0.00181056
*CONN
*I *1147:Y O *D CLKBUF1
*I *1148:CLK I *L 0
*I *1149:CLK I *L 0
*I *1150:CLK I *L 0
*I *1151:CLK I *L 0
*I *1152:CLK I *L 0
*I *1153:CLK I *L 0
*I *1154:CLK I *L 0
*I *1155:CLK I *L 0
*CAP
1 1146_1 2.04e-05
2 1146_2 0.00015576
3 1146_3 0
4 1146_4 0.00042048
5 1146_5 2.04e-05
6 1146_6 0.0001308
7 1146_7 5.376e-05
8 1146_8 0.00012768
9 1146_9 0.00024888
10 1146_10 4.08e-05
11 1146_11 0.000102
12 1146_12 2.04e-05
13 1146_13 0.0003264
14 1146_14 2.04e-05
15 1146_15 0.0001224
*RES
1 *1147:Y 1146_1 0.233333
2 1146_1 1146_2 2.66
3 1146_2 1146_3 0
4 1146_3 *1148:CLK 0
5 1146_2 1146_4 6.34667
6 1146_4 1146_5 0.233333
7 1146_5 *1149:CLK 0
8 1146_5 1146_6 1.63333
9 1146_6 1146_7 1.49333
10 1146_7 *1150:CLK 0
11 1146_6 1146_8 3.54667
12 1146_8 *1151:CLK 0
13 1146_1 1146_9 6.58
14 1146_9 1146_10 0.466667
15 1146_10 *1152:CLK 0
16 1146_9 1146_11 1.16667
17 1146_11 1146_12 0.233333
18 1146_12 *1153:CLK 0
19 1146_12 1146_13 3.73333
20 1146_13 1146_14 0.233333
21 1146_14 *1154:CLK 0
22 1146_14 1146_15 1.4
23 1146_15 *1155:CLK 0
*END
*D_NET *1156 0.0028608
*CONN
*I *1157:Y O *D CLKBUF1
*I *1158:CLK I *L 0
*I *1159:CLK I *L 0
*I *1160:CLK I *L 0
*I *1161:CLK I *L 0
*I *1162:CLK I *L 0
*I *1163:CLK I *L 0
*I *1164:CLK I *L 0
*I *1165:CLK I *L 0
*CAP
1 1156_1 4.92e-05
2 1156_2 5.376e-05
3 1156_3 3.36e-05
4 1156_4 0.00023232
5 1156_5 4.08e-05
6 1156_6 0.00040056
7 1156_7 0.0001344
8 1156_8 8.4e-06
9 1156_9 0
10 1156_10 0.0008364
11 1156_11 2.04e-05
12 1156_12 0.00038016
13 1156_13 0
14 1156_14 0.00029736
15 1156_15 0.00037344
*RES
1 *1157:Y 1156_1 0.7
2 1156_1 1156_2 1.49333
3 1156_2 1156_3 0.933333
4 1156_3 *1158:CLK 0
5 1156_2 1156_4 2.45333
6 1156_4 1156_5 0.466667
7 1156_5 *1159:CLK 0
8 1156_4 1156_6 5.46
9 1156_6 *1160:CLK 0
10 1156_1 1156_7 3.73333
11 1156_7 1156_8 0.233333
12 1156_8 1156_9 0
13 1156_9 *1161:CLK 0
14 1156_9 1156_10 9.56667
15 1156_10 1156_11 0.233333
16 1156_11 *1162:CLK 0
17 1156_11 1156_12 5.22667
18 1156_12 1156_13 0
19 1156_13 *1163:CLK 0
20 1156_13 1156_14 5.92667
21 1156_14 *1164:CLK 0
22 1156_8 1156_15 5.04
23 1156_15 *1165:CLK 0
*END
*D_NET *1166 0.00248784
*CONN
*I *1167:Y O *D CLKBUF1
*I *1168:CLK I *L 0
*I *1169:CLK I *L 0
*I *1170:CLK I *L 0
*I *1171:CLK I *L 0
*I *1172:CLK I *L 0
*I *1173:CLK I *L 0
*I *1174:CLK I *L 0
*I *1175:CLK I *L 0
*CAP
1 1166_1 0.000336
2 1166_2 0.0003396
3 1166_3 8.064e-05
4 1166_4 0.00040056
5 1166_5 1.344e-05
6 1166_6 0.0003132
7 1166_7 0.0001224
8 1166_8 0.00027744
9 1166_9 2.04e-05
10 1166_10 0.00014232
11 1166_11 5.424e-05
12 1166_12 0.0002196
13 1166_13 3.36e-05
14 1166_14 0.0001344
*RES
1 *1167:Y 1166_1 9.33333
2 1166_1 1166_2 4.43333
3 1166_2 1166_3 2.24
4 1166_3 *1168:CLK 0
5 1166_2 1166_4 5.46
6 1166_4 *1169:CLK 0
7 1166_1 1166_5 0.373333
8 1166_5 *1170:CLK 0
9 1166_1 1166_6 7.16667
10 1166_6 1166_7 1.4
11 1166_7 *1171:CLK 0
12 1166_6 1166_8 3.17333
13 1166_8 1166_9 0.233333
14 1166_9 *1172:CLK 0
15 1166_9 1166_10 2.28667
16 1166_10 1166_11 0.84
17 1166_11 *1173:CLK 0
18 1166_10 1166_12 1.7
19 1166_12 1166_13 0.933333
20 1166_13 *1174:CLK 0
21 1166_12 1166_14 3.73333
22 1166_14 *1175:CLK 0
*END
*D_NET *1176 0.00259896
*CONN
*I *1177:Y O *D CLKBUF1
*I *1178:CLK I *L 0
*I *1179:CLK I *L 0
*I *1180:CLK I *L 0
*I *1181:CLK I *L 0
*I *1182:CLK I *L 0
*I *1183:CLK I *L 0
*I *1184:CLK I *L 0
*I *1185:CLK I *L 0
*CAP
1 1176_1 8.16e-05
2 1176_2 0.0001824
3 1176_3 0
4 1176_4 0.00037368
5 1176_5 0.000306
6 1176_6 4.08e-05
7 1176_7 0.00045528
8 1176_8 0.00024888
9 1176_9 6.12e-05
10 1176_10 2.04e-05
11 1176_11 0.000294
12 1176_12 8.136e-05
13 1176_13 0.00021024
14 1176_14 0.00024312
*RES
1 *1177:Y 1176_1 0.933333
2 1176_1 1176_2 3.73333
3 1176_2 1176_3 0
4 1176_3 *1178:CLK 0
5 1176_3 1176_4 4.71333
6 1176_4 *1179:CLK 0
7 1176_2 1176_5 8.16667
8 1176_5 1176_6 0.466667
9 1176_6 *1180:CLK 0
10 1176_5 1176_7 5.64667
11 1176_7 *1181:CLK 0
12 1176_1 1176_8 6.58
13 1176_8 1176_9 0.7
14 1176_9 1176_10 0.233333
15 1176_10 *1182:CLK 0
16 1176_10 1176_11 3.5
17 1176_11 1176_12 1.26
18 1176_12 *1183:CLK 0
19 1176_11 1176_13 3.17333
20 1176_13 *1184:CLK 0
21 1176_8 1176_14 5.08667
22 1176_14 *1185:CLK 0
*END
*D_NET *1186 0.00211032
*CONN
*I *1187:Y O *D CLKBUF1
*I *1188:CLK I *L 0
*I *1189:CLK I *L 0
*I *1190:CLK I *L 0
*I *1191:CLK I *L 0
*I *1192:CLK I *L 0
*I *1193:CLK I *L 0
*I *1194:CLK I *L 0
*I *1195:CLK I *L 0
*CAP
1 1186_1 0.00026448
2 1186_2 0
3 1186_3 0.00019632
4 1186_4 2.04e-05
5 1186_5 0.00038712
6 1186_6 2.04e-05
7 1186_7 0.00016272
8 1186_8 0
9 1186_9 0.0003264
10 1186_10 2.04e-05
11 1186_11 0.0001224
12 1186_12 2.04e-05
13 1186_13 0.00037944
14 1186_14 2.04e-05
15 1186_15 0.00016944
*RES
1 *1187:Y 1186_1 4.01333
2 1186_1 1186_2 0
3 1186_2 *1188:CLK 0
4 1186_1 1186_3 3.45333
5 1186_3 1186_4 0.233333
6 1186_4 *1189:CLK 0
7 1186_4 1186_5 5.08667
8 1186_5 1186_6 0.233333
9 1186_6 *1190:CLK 0
10 1186_6 1186_7 2.52
11 1186_7 1186_8 0
12 1186_8 *1191:CLK 0
13 1186_8 1186_9 3.73333
14 1186_9 1186_10 0.233333
15 1186_10 *1192:CLK 0
16 1186_10 1186_11 1.4
17 1186_11 1186_12 0.233333
18 1186_12 *1193:CLK 0
19 1186_12 1186_13 4.34
20 1186_13 1186_14 0.233333
21 1186_14 *1194:CLK 0
22 1186_14 1186_15 2.70667
23 1186_15 *1195:CLK 0
*END
*D_NET *1196 0.0017316
*CONN
*I *1197:Y O *D CLKBUF1
*I *1198:CLK I *L 0
*I *1199:CLK I *L 0
*I *1200:CLK I *L 0
*I *1201:CLK I *L 0
*I *1202:CLK I *L 0
*I *1203:CLK I *L 0
*I *1204:CLK I *L 0
*I *1205:CLK I *L 0
*CAP
1 1196_1 0.00014928
2 1196_2 2.04e-05
3 1196_3 0.00019488
4 1196_4 0
5 1196_5 0.00015576
6 1196_6 4.08e-05
7 1196_7 0.00016824
8 1196_8 4.08e-05
9 1196_9 0.00012168
10 1196_10 8.088e-05
11 1196_11 6.12e-05
12 1196_12 0.00015552
13 1196_13 0.0003672
14 1196_14 2.04e-05
15 1196_15 0.00015456
*RES
1 *1197:Y 1196_1 2.14667
2 1196_1 1196_2 0.233333
3 1196_2 *1198:CLK 0
4 1196_2 1196_3 5.41333
5 1196_3 1196_4 0
6 1196_4 *1199:CLK 0
7 1196_3 1196_5 2.66
8 1196_5 1196_6 0.466667
9 1196_6 *1200:CLK 0
10 1196_5 1196_7 4.34
11 1196_7 1196_8 0.466667
12 1196_8 *1201:CLK 0
13 1196_7 1196_9 2.38
14 1196_9 1196_10 1.91333
15 1196_10 1196_11 0.7
16 1196_11 *1202:CLK 0
17 1196_10 1196_12 2.98667
18 1196_12 *1203:CLK 0
19 1196_9 1196_13 4.2
20 1196_13 1196_14 0.233333
21 1196_14 *1204:CLK 0
22 1196_14 1196_15 4.29333
23 1196_15 *1205:CLK 0
*END
*D_NET *1206 0.00261096
*CONN
*I *1207:Y O *D CLKBUF1
*I *1208:CLK I *L 0
*I *1209:CLK I *L 0
*I *1210:CLK I *L 0
*I *1211:CLK I *L 0
*I *1212:CLK I *L 0
*I *1213:CLK I *L 0
*I *1214:CLK I *L 0
*I *1215:CLK I *L 0
*CAP
1 1206_1 0.00033864
2 1206_2 0.00016152
3 1206_3 4.08e-05
4 1206_4 0.00014232
5 1206_5 0.0001428
6 1206_6 0.00016296
7 1206_7 0.00033888
8 1206_8 2.04e-05
9 1206_9 0.00046032
10 1206_10 0.0001224
11 1206_11 0.00014112
12 1206_12 0
13 1206_13 0.0003504
14 1206_14 2.04e-05
15 1206_15 0.000168
*RES
1 *1207:Y 1206_1 5.74
2 1206_1 1206_2 4.15333
3 1206_2 1206_3 0.466667
4 1206_3 *1208:CLK 0
5 1206_2 1206_4 2.28667
6 1206_4 *1209:CLK 0
7 1206_1 1206_5 1.16667
8 1206_5 1206_6 2.19333
9 1206_6 *1210:CLK 0
10 1206_5 1206_7 5.41333
11 1206_7 1206_8 0.233333
12 1206_8 *1211:CLK 0
13 1206_8 1206_9 6.25333
14 1206_9 1206_10 1.4
15 1206_10 *1212:CLK 0
16 1206_9 1206_11 3.92
17 1206_11 1206_12 0
18 1206_12 *1213:CLK 0
19 1206_12 1206_13 3.53333
20 1206_13 1206_14 0.233333
21 1206_14 *1214:CLK 0
22 1206_14 1206_15 4.66667
23 1206_15 *1215:CLK 0
*END
*D_NET *1216 0.00207912
*CONN
*I *1217:Y O *D CLKBUF1
*I *1218:CLK I *L 0
*I *1219:CLK I *L 0
*I *1220:CLK I *L 0
*I *1221:CLK I *L 0
*I *1222:CLK I *L 0
*I *1223:CLK I *L 0
*I *1224:CLK I *L 0
*I *1225:CLK I *L 0
*CAP
1 1216_1 6.96e-05
2 1216_2 0.00029088
3 1216_3 0.00019872
4 1216_4 8.4e-06
5 1216_5 0
6 1216_6 0.00040728
7 1216_7 2.04e-05
8 1216_8 0.00016968
9 1216_9 0.00014112
10 1216_10 0.0001224
11 1216_11 2.016e-05
12 1216_12 0.00010752
13 1216_13 0.0003264
14 1216_14 2.04e-05
15 1216_15 0.00017616
*RES
1 *1217:Y 1216_1 0.933333
2 1216_1 1216_2 5.41333
3 1216_2 *1218:CLK 0
4 1216_1 1216_3 2.92
5 1216_3 1216_4 0.233333
6 1216_4 1216_5 0
7 1216_5 *1219:CLK 0
8 1216_5 1216_6 5.64667
9 1216_6 1216_7 0.233333
10 1216_7 *1220:CLK 0
11 1216_7 1216_8 2.38
12 1216_8 *1221:CLK 0
13 1216_4 1216_9 3.92
14 1216_9 1216_10 1.4
15 1216_10 *1222:CLK 0
16 1216_9 1216_11 0.56
17 1216_11 1216_12 2.98667
18 1216_12 *1223:CLK 0
19 1216_11 1216_13 3.73333
20 1216_13 1216_14 0.233333
21 1216_14 *1224:CLK 0
22 1216_14 1216_15 2.89333
23 1216_15 *1225:CLK 0
*END
*D_NET *1226 0.00262176
*CONN
*I *1227:Y O *D CLKBUF1
*I *1228:CLK I *L 0
*I *1229:CLK I *L 0
*I *1230:CLK I *L 0
*I *1231:CLK I *L 0
*I *1232:CLK I *L 0
*I *1233:CLK I *L 0
*I *1234:CLK I *L 0
*I *1235:CLK I *L 0
*CAP
1 1226_1 0.00017088
2 1226_2 0.0003264
3 1226_3 2.04e-05
4 1226_4 6.96e-05
5 1226_5 0.00010848
6 1226_6 2.04e-05
7 1226_7 0.00048216
8 1226_8 0.0001344
9 1226_9 8.16e-05
10 1226_10 7.416e-05
11 1226_11 6.12e-05
12 1226_12 2.04e-05
13 1226_13 0.00036696
14 1226_14 0.00053016
15 1226_15 0.00015456
*RES
1 *1227:Y 1226_1 1.74667
2 1226_1 1226_2 3.73333
3 1226_2 1226_3 0.233333
4 1226_3 *1228:CLK 0
5 1226_3 1226_4 0.933333
6 1226_4 1226_5 1.68
7 1226_5 1226_6 0.233333
8 1226_6 *1229:CLK 0
9 1226_6 1226_7 6.39333
10 1226_7 *1230:CLK 0
11 1226_4 1226_8 3.73333
12 1226_8 1226_9 0.933333
13 1226_9 *1231:CLK 0
14 1226_8 1226_10 1.72667
15 1226_10 1226_11 0.7
16 1226_11 1226_12 0.233333
17 1226_12 *1232:CLK 0
18 1226_12 1226_13 4.52667
19 1226_13 *1233:CLK 0
20 1226_10 1226_14 6.39333
21 1226_14 *1234:CLK 0
22 1226_1 1226_15 4.29333
23 1226_15 *1235:CLK 0
*END
*D_NET *1236 0.00234912
*CONN
*I *1237:Y O *D CLKBUF1
*I *1238:CLK I *L 0
*I *1239:CLK I *L 0
*I *1240:CLK I *L 0
*I *1241:CLK I *L 0
*I *1242:CLK I *L 0
*I *1243:CLK I *L 0
*I *1244:CLK I *L 0
*I *1245:CLK I *L 0
*CAP
1 1236_1 0.0001416
2 1236_2 7.392e-05
3 1236_3 0.0002856
4 1236_4 0.00021624
5 1236_5 2.04e-05
6 1236_6 0.00037368
7 1236_7 2.04e-05
8 1236_8 0.00015456
9 1236_9 8.4e-06
10 1236_10 0
11 1236_11 0.0003804
12 1236_12 0.00015456
13 1236_13 0.0002628
14 1236_14 2.04e-05
15 1236_15 0.00023616
*RES
1 *1237:Y 1236_1 3.26667
2 1236_1 1236_2 2.05333
3 1236_2 *1238:CLK 0
4 1236_1 1236_3 3.26667
5 1236_3 1236_4 2.47333
6 1236_4 1236_5 0.233333
7 1236_5 *1239:CLK 0
8 1236_5 1236_6 4.71333
9 1236_6 1236_7 0.233333
10 1236_7 *1240:CLK 0
11 1236_7 1236_8 4.29333
12 1236_8 1236_9 0.233333
13 1236_9 1236_10 0
14 1236_10 *1241:CLK 0
15 1236_10 1236_11 4.9
16 1236_11 *1242:CLK 0
17 1236_9 1236_12 4.29333
18 1236_12 *1243:CLK 0
19 1236_3 1236_13 6.3
20 1236_13 1236_14 0.233333
21 1236_14 *1244:CLK 0
22 1236_14 1236_15 5.22667
23 1236_15 *1245:CLK 0
*END
*D_NET *1246 0.00273048
*CONN
*I *1247:Y O *D CLKBUF1
*I *1248:CLK I *L 0
*I *1249:CLK I *L 0
*I *1250:CLK I *L 0
*I *1251:CLK I *L 0
*I *1252:CLK I *L 0
*I *1253:CLK I *L 0
*I *1254:CLK I *L 0
*I *1255:CLK I *L 0
*CAP
1 1246_1 2.04e-05
2 1246_2 0.000102
3 1246_3 2.04e-05
4 1246_4 0.00029184
5 1246_5 0.00015576
6 1246_6 2.04e-05
7 1246_7 0.0001224
8 1246_8 0.00051
9 1246_9 0.00020856
10 1246_10 4.08e-05
11 1246_11 0.0003144
12 1246_12 0.00014256
13 1246_13 2.04e-05
14 1246_14 0.0004824
15 1246_15 0.00027816
*RES
1 *1247:Y 1246_1 0.233333
2 1246_1 1246_2 1.16667
3 1246_2 1246_3 0.233333
4 1246_3 *1248:CLK 0
5 1246_3 1246_4 4.10667
6 1246_4 1246_5 2.66
7 1246_5 1246_6 0.233333
8 1246_6 *1249:CLK 0
9 1246_6 1246_7 1.4
10 1246_7 *1250:CLK 0
11 1246_4 1246_8 5.83333
12 1246_8 *1251:CLK 0
13 1246_1 1246_9 5.46
14 1246_9 1246_10 0.466667
15 1246_10 *1252:CLK 0
16 1246_9 1246_11 3.73333
17 1246_11 1246_12 1.96
18 1246_12 1246_13 0.233333
19 1246_13 *1253:CLK 0
20 1246_13 1246_14 6.06667
21 1246_14 *1254:CLK 0
22 1246_11 1246_15 4.06
23 1246_15 *1255:CLK 0
*END
*D_NET *1256 0.0027672
*CONN
*I *1257:Y O *D CLKBUF1
*I *1258:CLK I *L 0
*I *1259:CLK I *L 0
*I *1260:CLK I *L 0
*I *1261:CLK I *L 0
*I *1262:CLK I *L 0
*I *1263:CLK I *L 0
*I *1264:CLK I *L 0
*I *1265:CLK I *L 0
*CAP
1 1256_1 0.0002508
2 1256_2 0.0001104
3 1256_3 2.016e-05
4 1256_4 0.00010152
5 1256_5 0.0002856
6 1256_6 0.00018216
7 1256_7 2.04e-05
8 1256_8 0.00017544
9 1256_9 4.08e-05
10 1256_10 0.00011424
11 1256_11 6.744e-05
12 1256_12 4.08e-05
13 1256_13 0.00105144
14 1256_14 0.000306
*RES
1 *1257:Y 1256_1 3.96667
2 1256_1 1256_2 1.4
3 1256_2 1256_3 0.56
4 1256_3 *1258:CLK 0
5 1256_2 1256_4 1.82
6 1256_4 1256_5 3.26667
7 1256_5 *1259:CLK 0
8 1256_4 1256_6 4.06
9 1256_6 1256_7 0.233333
10 1256_7 *1260:CLK 0
11 1256_7 1256_8 2.00667
12 1256_8 *1261:CLK 0
13 1256_1 1256_9 0.466667
14 1256_9 *1262:CLK 0
15 1256_1 1256_10 3.17333
16 1256_10 1256_11 1.54
17 1256_11 1256_12 0.466667
18 1256_12 *1263:CLK 0
19 1256_11 1256_13 15.54
20 1256_13 *1264:CLK 0
21 1256_10 1256_14 3.5
22 1256_14 *1265:CLK 0
*END
*D_NET *1266 0.00151824
*CONN
*I *1267:Y O *D BUFX2
*I *1268:R I *L 0
*I *1269:R I *L 0
*I *1270:R I *L 0
*I *1271:R I *L 0
*I *1272:R I *L 0
*I *1273:R I *L 0
*I *1274:R I *L 0
*I *1275:R I *L 0
*CAP
1 1266_1 0.00020352
2 1266_2 2.04e-05
3 1266_3 0.0002448
4 1266_4 0.00011424
5 1266_5 0
6 1266_6 0.00026496
7 1266_7 0
8 1266_8 0.00025128
9 1266_9 0.00011424
10 1266_10 6.048e-05
11 1266_11 4.032e-05
12 1266_12 0.000204
*RES
1 *1267:Y 1266_1 2.98667
2 1266_1 1266_2 0.233333
3 1266_2 *1268:R 0
4 1266_2 1266_3 2.8
5 1266_3 *1269:R 0
6 1266_2 1266_4 3.17333
7 1266_4 1266_5 0
8 1266_5 *1270:R 0
9 1266_5 1266_6 3.36
10 1266_6 1266_7 0
11 1266_7 *1271:R 0
12 1266_7 1266_8 3.31333
13 1266_8 *1272:R 0
14 1266_7 1266_9 3.17333
15 1266_9 *1273:R 0
16 1266_9 1266_10 1.68
17 1266_10 1266_11 1.12
18 1266_11 *1274:R 0
19 1266_10 1266_12 2.33333
20 1266_12 *1275:R 0
*END
*D_NET *1276 0.00117552
*CONN
*I *1277:Y O *D BUFX2
*I *1278:R I *L 0
*I *1279:R I *L 0
*I *1280:R I *L 0
*I *1281:R I *L 0
*I *1282:R I *L 0
*I *1283:R I *L 0
*I *1284:R I *L 0
*I *1285:R I *L 0
*CAP
1 1276_1 2.016e-05
2 1276_2 0.00018264
3 1276_3 0.0002448
4 1276_4 6.048e-05
5 1276_5 2.04e-05
6 1276_6 0.0002448
7 1276_7 6.048e-05
8 1276_8 6.048e-05
9 1276_9 0.0002208
10 1276_10 6.048e-05
*RES
1 *1277:Y 1276_1 0.56
2 1276_1 1276_2 3.40667
3 1276_2 *1278:R 0
4 1276_2 1276_3 2.8
5 1276_3 *1279:R 0
6 1276_3 1276_4 1.68
7 1276_4 *1280:R 0
8 1276_4 1276_5 0.233333
9 1276_5 1276_6 2.8
10 1276_6 *1281:R 0
11 1276_5 1276_7 1.68
12 1276_7 *1282:R 0
13 1276_7 1276_8 1.68
14 1276_8 *1283:R 0
15 1276_1 1276_9 2.6
16 1276_9 *1284:R 0
17 1276_9 1276_10 1.68
18 1276_10 *1285:R 0
*END
*D_NET *1286 0.00265272
*CONN
*I *1287:Y O *D BUFX2
*I *1288:R I *L 0
*I *1289:R I *L 0
*I *1290:R I *L 0
*I *1291:R I *L 0
*I *1292:R I *L 0
*I *1293:R I *L 0
*I *1294:R I *L 0
*I *1295:R I *L 0
*CAP
1 1286_1 0.0001428
2 1286_2 0.0002448
3 1286_3 6.048e-05
4 1286_4 4.032e-05
5 1286_5 2.04e-05
6 1286_6 0.00025704
7 1286_7 2.04e-05
8 1286_8 0.00033912
9 1286_9 0.00033216
10 1286_10 0.00048144
11 1286_11 0.00028536
12 1286_12 0.0004284
*RES
1 *1287:Y 1286_1 1.63333
2 1286_1 1286_2 2.8
3 1286_2 *1288:R 0
4 1286_1 1286_3 1.68
5 1286_3 1286_4 1.12
6 1286_4 *1289:R 0
7 1286_4 1286_5 0.233333
8 1286_5 1286_6 2.94
9 1286_6 1286_7 0.233333
10 1286_7 *1290:R 0
11 1286_7 1286_8 5.08667
12 1286_8 *1291:R 0
13 1286_8 1286_9 5.22667
14 1286_9 *1292:R 0
15 1286_9 1286_10 5.50667
16 1286_10 *1293:R 0
17 1286_5 1286_11 3.59333
18 1286_11 *1294:R 0
19 1286_3 1286_12 4.9
20 1286_12 *1295:R 0
*END
*D_NET *1296 0.00153912
*CONN
*I *1297:Y O *D BUFX2
*I *1298:R I *L 0
*I *1299:R I *L 0
*I *1300:R I *L 0
*I *1301:R I *L 0
*I *1302:R I *L 0
*I *1303:R I *L 0
*I *1304:R I *L 0
*I *1305:R I *L 0
*CAP
1 1296_1 2.04e-05
2 1296_2 6.096e-05
3 1296_3 1.344e-05
4 1296_4 0.00027144
5 1296_5 0.0002448
6 1296_6 2.04e-05
7 1296_7 0.00027816
8 1296_8 8.736e-05
9 1296_9 8.112e-05
10 1296_10 0.00021624
11 1296_11 0.0002448
*RES
1 *1297:Y 1296_1 0.233333
2 1296_1 1296_2 1.02667
3 1296_2 1296_3 0.373333
4 1296_3 *1298:R 0
5 1296_3 1296_4 3.87333
6 1296_4 *1299:R 0
7 1296_2 1296_5 2.8
8 1296_5 1296_6 0.233333
9 1296_6 *1300:R 0
10 1296_6 1296_7 4.06
11 1296_7 *1301:R 0
12 1296_7 1296_8 2.42667
13 1296_8 *1302:R 0
14 1296_1 1296_9 1.58667
15 1296_9 *1303:R 0
16 1296_1 1296_10 2.47333
17 1296_10 *1304:R 0
18 1296_10 1296_11 2.8
19 1296_11 *1305:R 0
*END
*D_NET *1306 0.00236952
*CONN
*I *1307:Y O *D BUFX2
*I *1308:R I *L 0
*I *1309:R I *L 0
*I *1310:R I *L 0
*I *1311:R I *L 0
*I *1312:R I *L 0
*I *1313:R I *L 0
*I *1314:R I *L 0
*I *1315:R I *L 0
*CAP
1 1306_1 0.00010824
2 1306_2 0.0001224
3 1306_3 0.0003936
4 1306_4 7.392e-05
5 1306_5 3.36e-05
6 1306_6 3.36e-05
7 1306_7 0.0002448
8 1306_8 0.000204
9 1306_9 0.0002448
10 1306_10 0.0004284
11 1306_11 0.00048216
*RES
1 *1307:Y 1306_1 2.00667
2 1306_1 1306_2 1.4
3 1306_2 *1308:R 0
4 1306_1 1306_3 5.6
5 1306_3 *1309:R 0
6 1306_3 1306_4 2.05333
7 1306_4 1306_5 0.933333
8 1306_5 1306_6 0.933333
9 1306_6 *1310:R 0
10 1306_6 1306_7 2.8
11 1306_7 *1311:R 0
12 1306_5 1306_8 2.33333
13 1306_8 *1312:R 0
14 1306_8 1306_9 2.8
15 1306_9 *1313:R 0
16 1306_4 1306_10 4.9
17 1306_10 *1314:R 0
18 1306_3 1306_11 6.39333
19 1306_11 *1315:R 0
*END
*D_NET *1316 0.00225936
*CONN
*I *1317:Y O *D BUFX2
*I *1318:R I *L 0
*I *1319:R I *L 0
*I *1320:R I *L 0
*I *1321:R I *L 0
*I *1322:R I *L 0
*I *1323:R I *L 0
*I *1324:R I *L 0
*I *1325:R I *L 0
*CAP
1 1316_1 0.00019008
2 1316_2 2.04e-05
3 1316_3 0.0002448
4 1316_4 0.00015528
5 1316_5 4.08e-05
6 1316_6 0.00033912
7 1316_7 0.00048144
8 1316_8 0.00025104
9 1316_9 0.0002916
10 1316_10 0.0002448
*RES
1 *1317:Y 1316_1 2.61333
2 1316_1 1316_2 0.233333
3 1316_2 *1318:R 0
4 1316_2 1316_3 2.8
5 1316_3 *1319:R 0
6 1316_3 1316_4 3.31333
7 1316_4 1316_5 0.466667
8 1316_5 *1320:R 0
9 1316_5 1316_6 5.08667
10 1316_6 *1321:R 0
11 1316_6 1316_7 5.50667
12 1316_7 *1322:R 0
13 1316_4 1316_8 3.64
14 1316_8 *1323:R 0
15 1316_2 1316_9 4.43333
16 1316_9 *1324:R 0
17 1316_9 1316_10 2.8
18 1316_10 *1325:R 0
*END
*D_NET *1326 0.00284472
*CONN
*I *1327:Y O *D BUFX2
*I *1328:R I *L 0
*I *1329:R I *L 0
*I *1330:R I *L 0
*I *1331:R I *L 0
*I *1332:R I *L 0
*I *1333:R I *L 0
*I *1334:R I *L 0
*I *1335:R I *L 0
*CAP
1 1326_1 0.00042792
2 1326_2 0.000204
3 1326_3 0.0001008
4 1326_4 0.00033888
5 1326_5 0.00027168
6 1326_6 2.04e-05
7 1326_7 0.00013536
8 1326_8 0.0001632
9 1326_9 0.0003444
10 1326_10 8.16e-05
11 1326_11 0.00028752
12 1326_12 0.00046896
*RES
1 *1327:Y 1326_1 5.55333
2 1326_1 1326_2 2.33333
3 1326_2 *1328:R 0
4 1326_1 1326_3 2.8
5 1326_3 *1329:R 0
6 1326_3 1326_4 5.41333
7 1326_4 *1330:R 0
8 1326_4 1326_5 3.54667
9 1326_5 *1331:R 0
10 1326_5 1326_6 0.233333
11 1326_6 1326_7 2.42667
12 1326_7 1326_8 1.86667
13 1326_8 *1332:R 0
14 1326_7 1326_9 7.23333
15 1326_9 1326_10 0.933333
16 1326_10 *1333:R 0
17 1326_9 1326_11 3.38667
18 1326_11 *1334:R 0
19 1326_6 1326_12 5.69333
20 1326_12 *1335:R 0
*END
*D_NET *1336 0.0022464
*CONN
*I *1337:Y O *D BUFX2
*I *1338:R I *L 0
*I *1339:R I *L 0
*I *1340:R I *L 0
*I *1341:R I *L 0
*I *1342:R I *L 0
*I *1343:R I *L 0
*I *1344:R I *L 0
*I *1345:R I *L 0
*CAP
1 1336_1 0.0001632
2 1336_2 2.04e-05
3 1336_3 4.032e-05
4 1336_4 1.344e-05
5 1336_5 0
6 1336_6 0.00014256
7 1336_7 0.000102
8 1336_8 0.0001884
9 1336_9 0.000102
10 1336_10 0.00074376
11 1336_11 0.0002448
12 1336_12 2.04e-05
13 1336_13 0.0001716
14 1336_14 0.00010152
15 1336_15 0.000192
*RES
1 *1337:Y 1336_1 1.86667
2 1336_1 1336_2 0.233333
3 1336_2 *1338:R 0
4 1336_2 1336_3 1.12
5 1336_3 1336_4 0.373333
6 1336_4 1336_5 0
7 1336_5 *1339:R 0
8 1336_5 1336_6 1.96
9 1336_6 1336_7 1.16667
10 1336_7 *1340:R 0
11 1336_6 1336_8 4.9
12 1336_8 1336_9 1.16667
13 1336_9 *1341:R 0
14 1336_8 1336_10 12.46
15 1336_10 *1342:R 0
16 1336_3 1336_11 2.8
17 1336_11 1336_12 0.233333
18 1336_12 *1343:R 0
19 1336_12 1336_13 2.1
20 1336_13 1336_14 1.82
21 1336_14 *1344:R 0
22 1336_13 1336_15 4.66667
23 1336_15 *1345:R 0
*END
*D_NET *1346 0.0023412
*CONN
*I *1347:Y O *D BUFX2
*I *1348:R I *L 0
*I *1349:R I *L 0
*I *1350:R I *L 0
*I *1351:R I *L 0
*I *1352:R I *L 0
*I *1353:R I *L 0
*I *1354:R I *L 0
*I *1355:R I *L 0
*CAP
1 1346_1 0.00061848
2 1346_2 2.04e-05
3 1346_3 0.0002712
4 1346_4 2.04e-05
5 1346_5 0.0001836
6 1346_6 0.0002652
7 1346_7 0.00023664
8 1346_8 2.04e-05
9 1346_9 0.0002448
10 1346_10 0.0002916
11 1346_11 8.784e-05
12 1346_12 8.064e-05
*RES
1 *1347:Y 1346_1 7.51333
2 1346_1 1346_2 0.233333
3 1346_2 *1348:R 0
4 1346_2 1346_3 4.2
5 1346_3 *1349:R 0
6 1346_3 1346_4 0.233333
7 1346_4 1346_5 2.1
8 1346_5 1346_6 3.03333
9 1346_6 *1350:R 0
10 1346_6 1346_7 2.70667
11 1346_7 *1351:R 0
12 1346_7 1346_8 0.233333
13 1346_8 1346_9 2.8
14 1346_9 *1352:R 0
15 1346_8 1346_10 4.43333
16 1346_10 *1353:R 0
17 1346_5 1346_11 1.77333
18 1346_11 *1354:R 0
19 1346_4 1346_12 2.24
20 1346_12 *1355:R 0
*END
*D_NET *1356 0.00147168
*CONN
*I *1357:Y O *D BUFX2
*I *1358:R I *L 0
*I *1359:R I *L 0
*I *1360:R I *L 0
*I *1361:R I *L 0
*I *1362:R I *L 0
*I *1363:R I *L 0
*I *1364:R I *L 0
*I *1365:R I *L 0
*CAP
1 1356_1 0.0001512
2 1356_2 0.00018336
3 1356_3 0.00023664
4 1356_4 2.04e-05
5 1356_5 0.00026472
6 1356_6 0.0001008
7 1356_7 0.0002448
8 1356_8 6.768e-05
9 1356_9 0.00011472
10 1356_10 8.736e-05
*RES
1 *1357:Y 1356_1 1.86667
2 1356_1 1356_2 2.42667
3 1356_2 *1358:R 0
4 1356_2 1356_3 4.57333
5 1356_3 1356_4 0.233333
6 1356_4 *1359:R 0
7 1356_4 1356_5 3.68667
8 1356_5 *1360:R 0
9 1356_4 1356_6 2.8
10 1356_6 *1361:R 0
11 1356_6 1356_7 2.8
12 1356_7 *1362:R 0
13 1356_1 1356_8 1.21333
14 1356_8 *1363:R 0
15 1356_1 1356_9 2.52
16 1356_9 *1364:R 0
17 1356_9 1356_10 2.42667
18 1356_10 *1365:R 0
*END
*D_NET *1366 0.0022872
*CONN
*I *1367:Y O *D BUFX2
*I *1368:R I *L 0
*I *1369:R I *L 0
*I *1370:R I *L 0
*I *1371:R I *L 0
*I *1372:R I *L 0
*I *1373:R I *L 0
*I *1374:R I *L 0
*I *1375:R I *L 0
*CAP
1 1366_1 6.768e-05
2 1366_2 0
3 1366_3 0.000204
4 1366_4 0.0002448
5 1366_5 2.04e-05
6 1366_6 0.00032568
7 1366_7 0.000366
8 1366_8 2.04e-05
9 1366_9 0.000204
10 1366_10 0.00050904
11 1366_11 0.0003252
*RES
1 *1367:Y 1366_1 1.21333
2 1366_1 1366_2 0
3 1366_2 *1368:R 0
4 1366_2 1366_3 2.33333
5 1366_3 *1369:R 0
6 1366_3 1366_4 2.8
7 1366_4 *1370:R 0
8 1366_2 1366_5 0.233333
9 1366_5 1366_6 4.71333
10 1366_6 *1371:R 0
11 1366_6 1366_7 5.83333
12 1366_7 *1372:R 0
13 1366_7 1366_8 0.233333
14 1366_8 1366_9 2.33333
15 1366_9 *1373:R 0
16 1366_8 1366_10 7.14
17 1366_10 *1374:R 0
18 1366_5 1366_11 5.36667
19 1366_11 *1375:R 0
*END
*D_NET *1376 0.00225888
*CONN
*I *1377:Y O *D BUFX2
*I *1378:R I *L 0
*I *1379:R I *L 0
*I *1380:R I *L 0
*I *1381:R I *L 0
*I *1382:R I *L 0
*I *1383:R I *L 0
*I *1384:R I *L 0
*I *1385:R I *L 0
*CAP
1 1376_1 0.0006384
2 1376_2 2.04e-05
3 1376_3 0.0002448
4 1376_4 2.04e-05
5 1376_5 0.000204
6 1376_6 2.04e-05
7 1376_7 0.0002448
8 1376_8 2.04e-05
9 1376_9 0.0001224
10 1376_10 0.000102
11 1376_11 0.00014112
12 1376_12 0.000102
13 1376_13 0.0001896
14 1376_14 0.00018816
*RES
1 *1377:Y 1376_1 8.4
2 1376_1 1376_2 0.233333
3 1376_2 *1378:R 0
4 1376_2 1376_3 2.8
5 1376_3 *1379:R 0
6 1376_3 1376_4 0.233333
7 1376_4 1376_5 2.33333
8 1376_5 1376_6 0.233333
9 1376_6 *1380:R 0
10 1376_6 1376_7 2.8
11 1376_7 1376_8 0.233333
12 1376_8 *1381:R 0
13 1376_8 1376_9 1.4
14 1376_9 1376_10 1.16667
15 1376_10 *1382:R 0
16 1376_9 1376_11 3.92
17 1376_11 1376_12 1.16667
18 1376_12 *1383:R 0
19 1376_11 1376_13 3.26667
20 1376_13 *1384:R 0
21 1376_4 1376_14 5.22667
22 1376_14 *1385:R 0
*END
*D_NET *1386 0.00143136
*CONN
*I *1387:Y O *D BUFX2
*I *1388:R I *L 0
*I *1389:R I *L 0
*I *1390:R I *L 0
*I *1391:R I *L 0
*I *1392:R I *L 0
*I *1393:R I *L 0
*I *1394:R I *L 0
*I *1395:R I *L 0
*CAP
1 1386_1 2.04e-05
2 1386_2 0.00019584
3 1386_3 6.12e-05
4 1386_4 0.00012168
5 1386_5 2.016e-05
6 1386_6 0.000204
7 1386_7 0.0002448
8 1386_8 0.00016872
9 1386_9 4.08e-05
10 1386_10 8.784e-05
11 1386_11 0.000192
12 1386_12 2.688e-05
13 1386_13 4.704e-05
*RES
1 *1387:Y 1386_1 0.233333
2 1386_1 1386_2 2.24
3 1386_2 *1388:R 0
4 1386_1 1386_3 0.7
5 1386_3 1386_4 2.38
6 1386_4 1386_5 0.56
7 1386_5 *1389:R 0
8 1386_4 1386_6 2.33333
9 1386_6 *1390:R 0
10 1386_6 1386_7 2.8
11 1386_7 *1391:R 0
12 1386_3 1386_8 3.68667
13 1386_8 *1392:R 0
14 1386_8 1386_9 0.466667
15 1386_9 1386_10 1.77333
16 1386_10 *1393:R 0
17 1386_9 1386_11 2.33333
18 1386_11 1386_12 0.746667
19 1386_12 *1394:R 0
20 1386_11 1386_13 1.30667
21 1386_13 *1395:R 0
*END
*D_NET *1396 0.00171456
*CONN
*I *1397:Y O *D BUFX2
*I *1398:R I *L 0
*I *1399:R I *L 0
*I *1400:R I *L 0
*I *1401:R I *L 0
*I *1402:R I *L 0
*I *1403:R I *L 0
*I *1404:R I *L 0
*I *1405:R I *L 0
*CAP
1 1396_1 0.0001308
2 1396_2 0.0002412
3 1396_3 8.736e-05
4 1396_4 0
5 1396_5 0.000258
6 1396_6 8.808e-05
7 1396_7 0.00019512
8 1396_8 6.12e-05
9 1396_9 2.04e-05
10 1396_10 0.000204
11 1396_11 0.000204
12 1396_12 2.04e-05
13 1396_13 0.000204
*RES
1 *1397:Y 1396_1 1.63333
2 1396_1 1396_2 2.47333
3 1396_2 *1398:R 0
4 1396_2 1396_3 2.42667
5 1396_3 1396_4 0
6 1396_4 *1399:R 0
7 1396_4 1396_5 3.5
8 1396_5 *1400:R 0
9 1396_1 1396_6 1.44667
10 1396_6 *1401:R 0
11 1396_1 1396_7 5.08667
12 1396_7 1396_8 0.7
13 1396_8 1396_9 0.233333
14 1396_9 *1402:R 0
15 1396_9 1396_10 2.33333
16 1396_10 *1403:R 0
17 1396_7 1396_11 2.33333
18 1396_11 1396_12 0.233333
19 1396_12 *1404:R 0
20 1396_12 1396_13 2.33333
21 1396_13 *1405:R 0
*END
*D_NET *1406 0.00213072
*CONN
*I *1407:Y O *D BUFX2
*I *1408:R I *L 0
*I *1409:R I *L 0
*I *1410:R I *L 0
*I *1411:R I *L 0
*I *1412:R I *L 0
*I *1413:R I *L 0
*I *1414:R I *L 0
*I *1415:R I *L 0
*CAP
1 1406_1 2.04e-05
2 1406_2 0.0001428
3 1406_3 0.000102
4 1406_4 0.00021624
5 1406_5 0.0004284
6 1406_6 0.00024384
7 1406_7 0.0001824
8 1406_8 0.000204
9 1406_9 9.48e-05
10 1406_10 0.0001632
11 1406_11 0.00033264
*RES
1 *1407:Y 1406_1 0.233333
2 1406_1 1406_2 1.63333
3 1406_2 *1408:R 0
4 1406_2 1406_3 1.16667
5 1406_3 1406_4 2.47333
6 1406_4 *1409:R 0
7 1406_4 1406_5 4.9
8 1406_5 *1410:R 0
9 1406_3 1406_6 4.10667
10 1406_6 *1411:R 0
11 1406_1 1406_7 3.73333
12 1406_7 *1412:R 0
13 1406_7 1406_8 2.33333
14 1406_8 *1413:R 0
15 1406_8 1406_9 1.63333
16 1406_9 1406_10 1.86667
17 1406_10 *1414:R 0
18 1406_9 1406_11 4.57333
19 1406_11 *1415:R 0
*END
*D_NET *1416 0.00183144
*CONN
*I *1417:Y O *D BUFX2
*I *1418:R I *L 0
*I *1419:R I *L 0
*I *1420:R I *L 0
*I *1421:R I *L 0
*I *1422:R I *L 0
*I *1423:R I *L 0
*I *1424:R I *L 0
*I *1425:R I *L 0
*CAP
1 1416_1 0.00046824
2 1416_2 4.032e-05
3 1416_3 4.032e-05
4 1416_4 0
5 1416_5 0.0002448
6 1416_6 2.04e-05
7 1416_7 0.000204
8 1416_8 0.000204
9 1416_9 0.0002448
10 1416_10 0.00025704
11 1416_11 0.00010752
*RES
1 *1417:Y 1416_1 6.67333
2 1416_1 *1418:R 0
3 1416_1 1416_2 1.12
4 1416_2 1416_3 1.12
5 1416_3 1416_4 0
6 1416_4 *1419:R 0
7 1416_4 1416_5 2.8
8 1416_5 1416_6 0.233333
9 1416_6 *1420:R 0
10 1416_6 1416_7 2.33333
11 1416_7 *1421:R 0
12 1416_2 1416_8 2.33333
13 1416_8 *1422:R 0
14 1416_8 1416_9 2.8
15 1416_9 *1423:R 0
16 1416_9 1416_10 2.94
17 1416_10 *1424:R 0
18 1416_10 1416_11 2.98667
19 1416_11 *1425:R 0
*END
*D_NET *1426 0.00170808
*CONN
*I *1427:Y O *D BUFX2
*I *1428:R I *L 0
*I *1429:R I *L 0
*I *1430:R I *L 0
*I *1431:R I *L 0
*I *1432:R I *L 0
*I *1433:R I *L 0
*I *1434:R I *L 0
*I *1435:R I *L 0
*CAP
1 1426_1 2.04e-05
2 1426_2 0.0001632
3 1426_3 0.0002568
4 1426_4 2.04e-05
5 1426_5 0.000204
6 1426_6 2.04e-05
7 1426_7 0.00027744
8 1426_8 0.000204
9 1426_9 0.00018216
10 1426_10 4.08e-05
11 1426_11 0.0002244
12 1426_12 9.408e-05
*RES
1 *1427:Y 1426_1 0.233333
2 1426_1 1426_2 1.86667
3 1426_2 *1428:R 0
4 1426_1 1426_3 5.13333
5 1426_3 1426_4 0.233333
6 1426_4 *1429:R 0
7 1426_4 1426_5 2.33333
8 1426_5 1426_6 0.233333
9 1426_6 *1430:R 0
10 1426_6 1426_7 3.17333
11 1426_7 *1431:R 0
12 1426_7 1426_8 2.33333
13 1426_8 *1432:R 0
14 1426_4 1426_9 4.06
15 1426_9 1426_10 0.466667
16 1426_10 *1433:R 0
17 1426_9 1426_11 2.56667
18 1426_11 *1434:R 0
19 1426_11 1426_12 2.61333
20 1426_12 *1435:R 0
*END
*D_NET *1436 0.00154104
*CONN
*I *1437:Y O *D BUFX2
*I *1438:R I *L 0
*I *1439:R I *L 0
*I *1440:R I *L 0
*I *1441:R I *L 0
*I *1442:R I *L 0
*I *1443:R I *L 0
*I *1444:R I *L 0
*I *1445:R I *L 0
*CAP
1 1436_1 0.00021168
2 1436_2 0.00027168
3 1436_3 0.00014832
4 1436_4 4.08e-05
5 1436_5 5.376e-05
6 1436_6 0.00028536
7 1436_7 0.00026472
8 1436_8 0.000204
9 1436_9 2.04e-05
10 1436_10 4.032e-05
*RES
1 *1437:Y 1436_1 2.14667
2 1436_1 *1438:R 0
3 1436_1 1436_2 3.54667
4 1436_2 *1439:R 0
5 1436_2 1436_3 3.45333
6 1436_3 1436_4 0.466667
7 1436_4 *1440:R 0
8 1436_4 1436_5 1.49333
9 1436_5 *1441:R 0
10 1436_5 1436_6 3.59333
11 1436_6 *1442:R 0
12 1436_3 1436_7 3.68667
13 1436_7 *1443:R 0
14 1436_7 1436_8 2.33333
15 1436_8 1436_9 0.233333
16 1436_9 *1444:R 0
17 1436_9 1436_10 1.12
18 1436_10 *1445:R 0
*END
*D_NET *1446 0.00172944
*CONN
*I *1447:Y O *D BUFX2
*I *1448:R I *L 0
*I *1449:R I *L 0
*I *1450:R I *L 0
*I *1451:R I *L 0
*I *1452:R I *L 0
*I *1453:R I *L 0
*I *1454:R I *L 0
*I *1455:R I *L 0
*CAP
1 1446_1 0.00021624
2 1446_2 0.00019584
3 1446_3 0.0002448
4 1446_4 0.0004284
5 1446_5 6.048e-05
6 1446_6 6.048e-05
7 1446_7 2.04e-05
8 1446_8 0.000258
9 1446_9 0.0002448
*RES
1 *1447:Y 1446_1 2.47333
2 1446_1 1446_2 2.24
3 1446_2 *1448:R 0
4 1446_2 1446_3 2.8
5 1446_3 *1449:R 0
6 1446_3 1446_4 4.9
7 1446_4 *1450:R 0
8 1446_4 1446_5 1.68
9 1446_5 *1451:R 0
10 1446_2 1446_6 1.68
11 1446_6 *1452:R 0
12 1446_1 1446_7 0.233333
13 1446_7 *1453:R 0
14 1446_7 1446_8 3.5
15 1446_8 *1454:R 0
16 1446_8 1446_9 2.8
17 1446_9 *1455:R 0
*END
*D_NET *1456 0.00203664
*CONN
*I *1457:Y O *D BUFX2
*I *1458:R I *L 0
*I *1459:R I *L 0
*I *1460:R I *L 0
*I *1461:R I *L 0
*I *1462:R I *L 0
*I *1463:R I *L 0
*I *1464:R I *L 0
*I *1465:R I *L 0
*CAP
1 1456_1 0.0002808
2 1456_2 2.04e-05
3 1456_3 0.0002448
4 1456_4 0.00026472
5 1456_5 0.00010752
6 1456_6 0
7 1456_7 0.000204
8 1456_8 2.688e-05
9 1456_9 0.00027744
10 1456_10 2.04e-05
11 1456_11 0.00031848
12 1456_12 0.0002712
*RES
1 *1457:Y 1456_1 3.45333
2 1456_1 1456_2 0.233333
3 1456_2 *1458:R 0
4 1456_2 1456_3 2.8
5 1456_3 *1459:R 0
6 1456_3 1456_4 3.68667
7 1456_4 *1460:R 0
8 1456_3 1456_5 2.98667
9 1456_5 1456_6 0
10 1456_6 *1461:R 0
11 1456_6 1456_7 2.33333
12 1456_7 1456_8 0.746667
13 1456_8 *1462:R 0
14 1456_7 1456_9 3.17333
15 1456_9 1456_10 0.233333
16 1456_10 *1463:R 0
17 1456_10 1456_11 5.18
18 1456_11 *1464:R 0
19 1456_10 1456_12 4.2
20 1456_12 *1465:R 0
*END
*D_NET *1466 0.00919656
*CONN
*I *1467:Y O *D _2006
*I *1468:A I *L 0
*I *1469:A I *L 0
*I *1470:A I *L 0
*I *1471:A I *L 0
*I *1472:A I *L 0
*I *1473:A I *L 0
*I *1474:A I *L 0
*I *1475:A I *L 0
*CAP
1 1466_1 0.0014748
2 1466_2 0.0007968
3 1466_3 0.000102
4 1466_4 0.00084288
5 1466_5 6.96e-05
6 1466_6 8.16e-05
7 1466_7 0.0004908
8 1466_8 8.16e-05
9 1466_9 0.00106944
10 1466_10 0.00034944
11 1466_11 0
12 1466_12 0.00205344
13 1466_13 9.984e-05
14 1466_14 0.00168432
*RES
1 *1467:Y 1466_1 17.9667
2 1466_1 *1468:A 0
3 1466_1 1466_2 21.4667
4 1466_2 1466_3 1.16667
5 1466_3 *1469:A 0
6 1466_2 1466_4 19.4133
7 1466_4 1466_5 0.933333
8 1466_5 1466_6 0.933333
9 1466_6 *1470:A 0
10 1466_5 1466_7 13.3
11 1466_7 1466_8 0.933333
12 1466_8 *1471:A 0
13 1466_7 1466_9 28.3733
14 1466_9 1466_10 9.70667
15 1466_10 *1472:A 0
16 1466_9 1466_11 0
17 1466_11 *1473:A 0
18 1466_4 1466_12 15.24
19 1466_12 1466_13 0.973333
20 1466_13 *1474:A 0
21 1466_12 1466_14 40.12
22 1466_14 *1475:A 0
*END
*D_NET *1476 0.0016872
*CONN
*I *1477:Y O *D BUFX2
*I *1478:B I *L 0
*I *1479:B I *L 0
*I *1480:B I *L 0
*I *1481:B I *L 0
*I *1482:B I *L 0
*I *1483:B I *L 0
*I *1484:B I *L 0
*I *1485:B I *L 0
*CAP
1 1476_1 4.08e-05
2 1476_2 0.0001416
3 1476_3 2.04e-05
4 1476_4 0.0001224
5 1476_5 0.0005508
6 1476_6 3.264e-05
7 1476_7 8.4e-06
8 1476_8 6.096e-05
9 1476_9 0.00021504
10 1476_10 4.08e-05
11 1476_11 2.688e-05
12 1476_12 0.00012888
13 1476_13 0.00022992
14 1476_14 4.08e-05
15 1476_15 2.688e-05
*RES
1 *1477:Y 1476_1 0.466667
2 1476_1 1476_2 3.26667
3 1476_2 1476_3 0.233333
4 1476_3 1476_4 1.4
5 1476_4 *1478:B 0
6 1476_3 1476_5 6.3
7 1476_5 1476_6 0.373333
8 1476_6 *1479:B 0
9 1476_5 1476_7 0.233333
10 1476_7 1476_8 1.02667
11 1476_8 *1480:B 0
12 1476_7 1476_9 5.97333
13 1476_9 1476_10 0.466667
14 1476_10 *1481:B 0
15 1476_9 1476_11 0.746667
16 1476_11 *1482:B 0
17 1476_2 1476_12 1.91333
18 1476_12 *1483:B 0
19 1476_1 1476_13 4.38667
20 1476_13 1476_14 0.466667
21 1476_14 *1484:B 0
22 1476_13 1476_15 0.746667
23 1476_15 *1485:B 0
*END
*D_NET *1486 0.00155424
*CONN
*I *1487:Y O *D BUFX2
*I *1488:B I *L 0
*I *1489:B I *L 0
*I *1490:B I *L 0
*I *1491:B I *L 0
*I *1492:B I *L 0
*I *1493:B I *L 0
*I *1494:B I *L 0
*I *1495:B I *L 0
*CAP
1 1486_1 0.00033936
2 1486_2 0.00019584
3 1486_3 2.04e-05
4 1486_4 6.768e-05
5 1486_5 2.016e-05
6 1486_6 0
7 1486_7 6.768e-05
8 1486_8 0.00044736
9 1486_9 0
10 1486_10 0.00023664
11 1486_11 2.04e-05
12 1486_12 8.112e-05
13 1486_13 5.76e-05
*RES
1 *1487:Y 1486_1 3.22667
2 1486_1 1486_2 2.24
3 1486_2 1486_3 0.233333
4 1486_3 *1488:B 0
5 1486_3 1486_4 1.21333
6 1486_4 *1489:B 0
7 1486_1 1486_5 0.56
8 1486_5 1486_6 0
9 1486_6 *1490:B 0
10 1486_5 1486_7 1.21333
11 1486_7 *1491:B 0
12 1486_1 1486_8 4.22667
13 1486_8 1486_9 0
14 1486_9 *1492:B 0
15 1486_9 1486_10 2.70667
16 1486_10 1486_11 0.233333
17 1486_11 *1493:B 0
18 1486_11 1486_12 1.58667
19 1486_12 *1494:B 0
20 1486_12 1486_13 0.373333
21 1486_13 *1495:B 0
*END
*D_NET *1496 0.00291408
*CONN
*I *1497:Y O *D BUFX2
*I *1498:B I *L 0
*I *1499:B I *L 0
*I *1500:B I *L 0
*I *1501:B I *L 0
*I *1502:B I *L 0
*I *1503:B I *L 0
*I *1504:B I *L 0
*I *1505:B I *L 0
*CAP
1 1496_1 0.00072696
2 1496_2 0.00018336
3 1496_3 2.04e-05
4 1496_4 6.768e-05
5 1496_5 0.000204
6 1496_6 2.04e-05
7 1496_7 4.08e-05
8 1496_8 2.688e-05
9 1496_9 0.0005232
10 1496_10 5.76e-05
11 1496_11 0.0003396
12 1496_12 0.00061512
13 1496_13 2.04e-05
14 1496_14 6.768e-05
*RES
1 *1497:Y 1496_1 11.5267
2 1496_1 1496_2 2.42667
3 1496_2 1496_3 0.233333
4 1496_3 *1498:B 0
5 1496_3 1496_4 1.21333
6 1496_4 *1499:B 0
7 1496_1 1496_5 2.33333
8 1496_5 1496_6 0.233333
9 1496_6 *1500:B 0
10 1496_6 1496_7 0.466667
11 1496_7 1496_8 0.746667
12 1496_8 *1501:B 0
13 1496_7 1496_9 5.41333
14 1496_9 1496_10 0.373333
15 1496_10 *1502:B 0
16 1496_9 1496_11 3.31333
17 1496_11 *1503:B 0
18 1496_1 1496_12 12.0867
19 1496_12 1496_13 0.233333
20 1496_13 *1504:B 0
21 1496_13 1496_14 1.21333
22 1496_14 *1505:B 0
*END
*D_NET *1506 0.00199152
*CONN
*I *1507:Y O *D BUFX2
*I *1508:B I *L 0
*I *1509:B I *L 0
*I *1510:B I *L 0
*I *1511:B I *L 0
*I *1512:B I *L 0
*I *1513:B I *L 0
*I *1514:B I *L 0
*I *1515:B I *L 0
*CAP
1 1506_1 0.0003312
2 1506_2 0.0002616
3 1506_3 2.04e-05
4 1506_4 0.00028488
5 1506_5 2.04e-05
6 1506_6 0.0002244
7 1506_7 6.768e-05
8 1506_8 2.04e-05
9 1506_9 0.0001428
10 1506_10 0.000102
11 1506_11 0.00035736
12 1506_12 0.0001584
*RES
1 *1507:Y 1506_1 6.53333
2 1506_1 *1508:B 0
3 1506_1 1506_2 2.70667
4 1506_2 1506_3 0.233333
5 1506_3 *1509:B 0
6 1506_3 1506_4 4.24667
7 1506_4 1506_5 0.233333
8 1506_5 *1510:B 0
9 1506_5 1506_6 2.56667
10 1506_6 *1511:B 0
11 1506_5 1506_7 1.21333
12 1506_7 1506_8 0.233333
13 1506_8 *1512:B 0
14 1506_8 1506_9 1.63333
15 1506_9 1506_10 1.16667
16 1506_10 *1513:B 0
17 1506_9 1506_11 8.26
18 1506_11 *1514:B 0
19 1506_11 1506_12 1.02667
20 1506_12 *1515:B 0
*END
*D_NET *1516 0.00162672
*CONN
*I *1517:Y O *D BUFX2
*I *1518:B I *L 0
*I *1519:B I *L 0
*I *1520:B I *L 0
*I *1521:B I *L 0
*I *1522:B I *L 0
*I *1523:B I *L 0
*I *1524:B I *L 0
*I *1525:B I *L 0
*CAP
1 1516_1 0.00023016
2 1516_2 4.08e-05
3 1516_3 8.064e-05
4 1516_4 0
5 1516_5 7.392e-05
6 1516_6 0.0004284
7 1516_7 2.04e-05
8 1516_8 0.00012144
9 1516_9 0.0004416
10 1516_10 2.04e-05
11 1516_11 6.768e-05
12 1516_12 0
13 1516_13 3.36e-05
14 1516_14 4.08e-05
15 1516_15 2.688e-05
*RES
1 *1517:Y 1516_1 4.06
2 1516_1 1516_2 0.466667
3 1516_2 *1518:B 0
4 1516_1 1516_3 2.24
5 1516_3 1516_4 0
6 1516_4 *1519:B 0
7 1516_3 1516_5 2.05333
8 1516_5 1516_6 4.9
9 1516_6 1516_7 0.233333
10 1516_7 *1520:B 0
11 1516_7 1516_8 2.70667
12 1516_8 *1521:B 0
13 1516_5 1516_9 5.6
14 1516_9 1516_10 0.233333
15 1516_10 *1522:B 0
16 1516_10 1516_11 1.21333
17 1516_11 1516_12 0
18 1516_12 *1523:B 0
19 1516_11 1516_13 0.933333
20 1516_13 1516_14 0.466667
21 1516_14 *1524:B 0
22 1516_13 1516_15 0.746667
23 1516_15 *1525:B 0
*END
*D_NET *1526 0.00129264
*CONN
*I *1527:Y O *D BUFX2
*I *1528:B I *L 0
*I *1529:B I *L 0
*I *1530:B I *L 0
*I *1531:B I *L 0
*I *1532:B I *L 0
*I *1533:B I *L 0
*I *1534:B I *L 0
*I *1535:B I *L 0
*CAP
1 1526_1 7.344e-05
2 1526_2 5.76e-05
3 1526_3 7.44e-05
4 1526_4 0
5 1526_5 0.00026208
6 1526_6 0
7 1526_7 0.0001584
8 1526_8 4.032e-05
9 1526_9 0
10 1526_10 0.00016248
11 1526_11 0.0001428
12 1526_12 0.00016272
13 1526_13 0.0001584
*RES
1 *1527:Y 1526_1 0.84
2 1526_1 1526_2 0.373333
3 1526_2 *1528:B 0
4 1526_1 1526_3 1.4
5 1526_3 1526_4 0
6 1526_4 *1529:B 0
7 1526_3 1526_5 7.28
8 1526_5 1526_6 0
9 1526_6 *1530:B 0
10 1526_6 1526_7 1.02667
11 1526_7 *1531:B 0
12 1526_5 1526_8 1.12
13 1526_8 1526_9 0
14 1526_9 *1532:B 0
15 1526_8 1526_10 2.84667
16 1526_10 1526_11 1.63333
17 1526_11 *1533:B 0
18 1526_10 1526_12 2.52
19 1526_12 *1534:B 0
20 1526_12 1526_13 1.02667
21 1526_13 *1535:B 0
*END
*D_NET *1536 0.00161136
*CONN
*I *1537:Y O *D BUFX2
*I *1538:B I *L 0
*I *1539:B I *L 0
*I *1540:B I *L 0
*I *1541:B I *L 0
*I *1542:B I *L 0
*I *1543:B I *L 0
*I *1544:B I *L 0
*I *1545:B I *L 0
*CAP
1 1536_1 6.96e-05
2 1536_2 5.376e-05
3 1536_3 0
4 1536_4 4.368e-05
5 1536_5 0
6 1536_6 0.00023088
7 1536_7 2.04e-05
8 1536_8 0.0002244
9 1536_9 0.0003792
10 1536_10 2.04e-05
11 1536_11 6.768e-05
12 1536_12 2.04e-05
13 1536_13 6.768e-05
14 1536_14 4.08e-05
15 1536_15 0.00037248
*RES
1 *1537:Y 1536_1 0.933333
2 1536_1 1536_2 1.49333
3 1536_2 1536_3 0
4 1536_3 *1538:B 0
5 1536_2 1536_4 1.21333
6 1536_4 1536_5 0
7 1536_5 *1539:B 0
8 1536_4 1536_6 3.08
9 1536_6 1536_7 0.233333
10 1536_7 *1540:B 0
11 1536_7 1536_8 2.56667
12 1536_8 *1541:B 0
13 1536_1 1536_9 6.53333
14 1536_9 1536_10 0.233333
15 1536_10 *1542:B 0
16 1536_10 1536_11 1.21333
17 1536_11 1536_12 0.233333
18 1536_12 *1543:B 0
19 1536_12 1536_13 1.21333
20 1536_13 1536_14 0.466667
21 1536_14 *1544:B 0
22 1536_13 1536_15 6.34667
23 1536_15 *1545:B 0
*END
*D_NET *1546 0.00187656
*CONN
*I *1547:Y O *D BUFX2
*I *1548:B I *L 0
*I *1549:B I *L 0
*I *1550:B I *L 0
*I *1551:B I *L 0
*I *1552:B I *L 0
*I *1553:B I *L 0
*I *1554:B I *L 0
*I *1555:B I *L 0
*CAP
1 1546_1 7.344e-05
2 1546_2 5.76e-05
3 1546_3 4.08e-05
4 1546_4 3.36e-05
5 1546_5 0.00068616
6 1546_6 2.04e-05
7 1546_7 8.112e-05
8 1546_8 1.344e-05
9 1546_9 0.000204
10 1546_10 0.0002244
11 1546_11 4.08e-05
12 1546_12 4.032e-05
13 1546_13 0.00022848
14 1546_14 5.76e-05
15 1546_15 7.44e-05
*RES
1 *1547:Y 1546_1 0.84
2 1546_1 1546_2 0.373333
3 1546_2 *1548:B 0
4 1546_1 1546_3 0.466667
5 1546_3 1546_4 0.933333
6 1546_4 *1549:B 0
7 1546_3 1546_5 8.72667
8 1546_5 1546_6 0.233333
9 1546_6 *1550:B 0
10 1546_6 1546_7 1.58667
11 1546_7 1546_8 0.373333
12 1546_8 *1551:B 0
13 1546_7 1546_9 2.33333
14 1546_9 1546_10 2.56667
15 1546_10 1546_11 0.466667
16 1546_11 *1552:B 0
17 1546_10 1546_12 1.12
18 1546_12 *1553:B 0
19 1546_9 1546_13 6.34667
20 1546_13 1546_14 0.373333
21 1546_14 *1554:B 0
22 1546_13 1546_15 1.4
23 1546_15 *1555:B 0
*END
*D_NET *1556 0.00859488
*CONN
*I *1557:Y O *D _2170
*I *1558:A I *L 0
*I *1559:A I *L 0
*I *1560:A I *L 0
*I *1561:A I *L 0
*I *1562:A I *L 0
*I *1563:A I *L 0
*I *1564:A I *L 0
*I *1565:A I *L 0
*CAP
1 1556_1 0.00069096
2 1556_2 0.0006732
3 1556_3 0.00034272
4 1556_4 0.00023904
5 1556_5 0
6 1556_6 0.00105144
7 1556_7 0.0007368
8 1556_8 0.00030096
9 1556_9 0.0005616
10 1556_10 0.0004128
11 1556_11 0
12 1556_12 0.0008208
13 1556_13 0.00119232
14 1556_14 0.00157224
*RES
1 *1557:Y 1556_1 16.1933
2 1556_1 1556_2 7.7
3 1556_2 *1558:A 0
4 1556_1 1556_3 9.52
5 1556_3 1556_4 4.04
6 1556_4 1556_5 0
7 1556_5 *1559:A 0
8 1556_5 1556_6 24.8733
9 1556_6 *1560:A 0
10 1556_6 1556_7 15.4
11 1556_7 1556_8 6.89333
12 1556_8 *1561:A 0
13 1556_7 1556_9 4.6
14 1556_9 1556_10 2.86667
15 1556_10 1556_11 0
16 1556_11 *1562:A 0
17 1556_10 1556_12 10.6
18 1556_12 *1563:A 0
19 1556_9 1556_13 29.12
20 1556_13 *1564:A 0
21 1556_3 1556_14 13.2067
22 1556_14 *1565:A 0
*END
*D_NET *1566 0.00349296
*CONN
*I *1567:Y O *D BUFX2
*I *1568:B I *L 0
*I *1569:B I *L 0
*I *1570:B I *L 0
*I *1571:B I *L 0
*I *1572:B I *L 0
*I *1573:B I *L 0
*I *1574:B I *L 0
*I *1575:B I *L 0
*CAP
1 1566_1 0.00023688
2 1566_2 0
3 1566_3 0.00059592
4 1566_4 0.0002652
5 1566_5 0.00058656
6 1566_6 2.04e-05
7 1566_7 6.768e-05
8 1566_8 0.00118536
9 1566_9 0
10 1566_10 5.376e-05
11 1566_11 4.08e-05
12 1566_12 0.00027072
13 1566_13 8.16e-05
14 1566_14 8.808e-05
*RES
1 *1567:Y 1566_1 4.24667
2 1566_1 1566_2 0
3 1566_2 *1568:B 0
4 1566_2 1566_3 7.04667
5 1566_3 *1569:B 0
6 1566_3 1566_4 3.03333
7 1566_4 1566_5 13.6267
8 1566_5 1566_6 0.233333
9 1566_6 *1570:B 0
10 1566_6 1566_7 1.21333
11 1566_7 *1571:B 0
12 1566_4 1566_8 19.9267
13 1566_8 1566_9 0
14 1566_9 *1572:B 0
15 1566_8 1566_10 1.49333
16 1566_10 1566_11 0.466667
17 1566_11 *1573:B 0
18 1566_10 1566_12 4.85333
19 1566_12 1566_13 0.933333
20 1566_13 *1574:B 0
21 1566_12 1566_14 1.44667
22 1566_14 *1575:B 0
*END
*D_NET *1576 0.0042828
*CONN
*I *1577:Y O *D BUFX2
*I *1578:B I *L 0
*I *1579:B I *L 0
*I *1580:B I *L 0
*I *1581:B I *L 0
*I *1582:B I *L 0
*I *1583:B I *L 0
*I *1584:B I *L 0
*I *1585:B I *L 0
*CAP
1 1576_1 0.00103248
2 1576_2 2.04e-05
3 1576_3 8.112e-05
4 1576_4 0
5 1576_5 0.00038304
6 1576_6 0
7 1576_7 8.112e-05
8 1576_8 2.04e-05
9 1576_9 0.00093
10 1576_10 6.12e-05
11 1576_11 2.04e-05
12 1576_12 0.00138624
13 1576_13 3.264e-05
14 1576_14 0.00012528
15 1576_15 0.00010848
*RES
1 *1577:Y 1576_1 10.68
2 1576_1 1576_2 0.233333
3 1576_2 *1578:B 0
4 1576_2 1576_3 1.58667
5 1576_3 1576_4 0
6 1576_4 *1579:B 0
7 1576_3 1576_5 10.64
8 1576_5 1576_6 0
9 1576_6 *1580:B 0
10 1576_5 1576_7 1.58667
11 1576_7 1576_8 0.233333
12 1576_8 *1581:B 0
13 1576_8 1576_9 12.8333
14 1576_9 1576_10 0.7
15 1576_10 1576_11 0.233333
16 1576_11 *1582:B 0
17 1576_11 1576_12 17.1733
18 1576_12 1576_13 0.373333
19 1576_13 *1583:B 0
20 1576_12 1576_14 1.58667
21 1576_14 *1584:B 0
22 1576_9 1576_15 1.68
23 1576_15 *1585:B 0
*END
*D_NET *1586 0.00280224
*CONN
*I *1587:Y O *D BUFX2
*I *1588:B I *L 0
*I *1589:B I *L 0
*I *1590:B I *L 0
*I *1591:B I *L 0
*I *1592:B I *L 0
*I *1593:B I *L 0
*I *1594:B I *L 0
*I *1595:B I *L 0
*CAP
1 1586_1 0.00135096
2 1586_2 0.0003144
3 1586_3 3.36e-05
4 1586_4 6.12e-05
5 1586_5 0.00010848
6 1586_6 0.00019584
7 1586_7 2.04e-05
8 1586_8 9.456e-05
9 1586_9 0.00013488
10 1586_10 0.00017544
11 1586_11 2.04e-05
12 1586_12 0.000204
13 1586_13 2.04e-05
14 1586_14 6.768e-05
*RES
1 *1587:Y 1586_1 14.46
2 1586_1 1586_2 3.73333
3 1586_2 1586_3 0.933333
4 1586_3 1586_4 0.7
5 1586_4 *1588:B 0
6 1586_3 1586_5 1.68
7 1586_5 *1589:B 0
8 1586_2 1586_6 4.10667
9 1586_6 1586_7 0.233333
10 1586_7 *1590:B 0
11 1586_7 1586_8 1.96
12 1586_8 *1591:B 0
13 1586_1 1586_9 3.08
14 1586_9 *1592:B 0
15 1586_1 1586_10 3.87333
16 1586_10 1586_11 0.233333
17 1586_11 *1593:B 0
18 1586_11 1586_12 2.33333
19 1586_12 1586_13 0.233333
20 1586_13 *1594:B 0
21 1586_13 1586_14 1.21333
22 1586_14 *1595:B 0
*END
*D_NET *1596 0.00186936
*CONN
*I *1597:Y O *D BUFX2
*I *1598:B I *L 0
*I *1599:B I *L 0
*I *1600:B I *L 0
*I *1601:B I *L 0
*I *1602:B I *L 0
*I *1603:B I *L 0
*I *1604:B I *L 0
*I *1605:B I *L 0
*CAP
1 1596_1 6.96e-05
2 1596_2 0.0001008
3 1596_3 0.000306
4 1596_4 2.04e-05
5 1596_5 6.768e-05
6 1596_6 0.00051264
7 1596_7 0
8 1596_8 6.768e-05
9 1596_9 0.0002688
10 1596_10 0.000156
11 1596_11 2.04e-05
12 1596_12 6.768e-05
13 1596_13 0.000144
14 1596_14 0
15 1596_15 6.768e-05
*RES
1 *1597:Y 1596_1 0.933333
2 1596_1 1596_2 2.8
3 1596_2 1596_3 3.5
4 1596_3 1596_4 0.233333
5 1596_4 *1598:B 0
6 1596_4 1596_5 1.21333
7 1596_5 *1599:B 0
8 1596_2 1596_6 10.84
9 1596_6 1596_7 0
10 1596_7 *1600:B 0
11 1596_6 1596_8 1.21333
12 1596_8 *1601:B 0
13 1596_1 1596_9 7.46667
14 1596_9 1596_10 2.33333
15 1596_10 1596_11 0.233333
16 1596_11 *1602:B 0
17 1596_11 1596_12 1.21333
18 1596_12 *1603:B 0
19 1596_9 1596_13 1
20 1596_13 1596_14 0
21 1596_14 *1604:B 0
22 1596_13 1596_15 1.21333
23 1596_15 *1605:B 0
*END
*D_NET *1606 0.00212736
*CONN
*I *1607:Y O *D BUFX2
*I *1608:B I *L 0
*I *1609:B I *L 0
*I *1610:B I *L 0
*I *1611:B I *L 0
*I *1612:B I *L 0
*I *1613:B I *L 0
*I *1614:B I *L 0
*I *1615:B I *L 0
*CAP
1 1606_1 0.0001428
2 1606_2 7.344e-05
3 1606_3 2.04e-05
4 1606_4 0.000258
5 1606_5 8.16e-05
6 1606_6 2.04e-05
7 1606_7 6.768e-05
8 1606_8 0.0002352
9 1606_9 6.048e-05
10 1606_10 0.000102
11 1606_11 0.00010848
12 1606_12 0.00080784
13 1606_13 4.08e-05
14 1606_14 2.688e-05
15 1606_15 8.136e-05
*RES
1 *1607:Y 1606_1 1.63333
2 1606_1 1606_2 0.84
3 1606_2 1606_3 0.233333
4 1606_3 *1608:B 0
5 1606_3 1606_4 2.43333
6 1606_4 1606_5 0.933333
7 1606_5 1606_6 0.233333
8 1606_6 *1609:B 0
9 1606_6 1606_7 1.21333
10 1606_7 *1610:B 0
11 1606_4 1606_8 6.53333
12 1606_8 1606_9 1.68
13 1606_9 1606_10 1.16667
14 1606_10 *1611:B 0
15 1606_9 1606_11 1.68
16 1606_11 *1612:B 0
17 1606_8 1606_12 9.24
18 1606_12 1606_13 0.466667
19 1606_13 *1613:B 0
20 1606_12 1606_14 0.746667
21 1606_14 *1614:B 0
22 1606_1 1606_15 1.26
23 1606_15 *1615:B 0
*END
*D_NET *1616 0.002706
*CONN
*I *1617:Y O *D BUFX2
*I *1618:B I *L 0
*I *1619:B I *L 0
*I *1620:B I *L 0
*I *1621:B I *L 0
*I *1622:B I *L 0
*I *1623:B I *L 0
*I *1624:B I *L 0
*I *1625:B I *L 0
*CAP
1 1616_1 0.00018264
2 1616_2 0.00011424
3 1616_3 6.12e-05
4 1616_4 0.00010848
5 1616_5 0.0005028
6 1616_6 2.04e-05
7 1616_7 0.0002784
8 1616_8 5.76e-05
9 1616_9 0.0005988
10 1616_10 4.08e-05
11 1616_11 2.04e-05
12 1616_12 0.00050016
13 1616_13 4.08e-05
14 1616_14 2.688e-05
15 1616_15 0.0001524
*RES
1 *1617:Y 1616_1 3.40667
2 1616_1 1616_2 3.17333
3 1616_2 1616_3 0.7
4 1616_3 *1618:B 0
5 1616_2 1616_4 1.68
6 1616_4 *1619:B 0
7 1616_1 1616_5 4.5
8 1616_5 1616_6 0.233333
9 1616_6 *1620:B 0
10 1616_6 1616_7 3.73333
11 1616_7 1616_8 0.373333
12 1616_8 *1621:B 0
13 1616_7 1616_9 6.43333
14 1616_9 1616_10 0.466667
15 1616_10 1616_11 0.233333
16 1616_11 *1622:B 0
17 1616_11 1616_12 9.89333
18 1616_12 1616_13 0.466667
19 1616_13 *1623:B 0
20 1616_12 1616_14 0.746667
21 1616_14 *1624:B 0
22 1616_9 1616_15 2.00667
23 1616_15 *1625:B 0
*END
*D_NET *1626 0.00221592
*CONN
*I *1627:Y O *D BUFX2
*I *1628:B I *L 0
*I *1629:B I *L 0
*I *1630:B I *L 0
*I *1631:B I *L 0
*I *1632:B I *L 0
*I *1633:B I *L 0
*I *1634:B I *L 0
*I *1635:B I *L 0
*CAP
1 1626_1 6.096e-05
2 1626_2 0
3 1626_3 6.768e-05
4 1626_4 2.04e-05
5 1626_5 0.0003264
6 1626_6 0.000102
7 1626_7 2.04e-05
8 1626_8 6.768e-05
9 1626_9 0.00039312
10 1626_10 8.16e-05
11 1626_11 2.688e-05
12 1626_12 0.000102
13 1626_13 0.00083856
14 1626_14 2.04e-05
15 1626_15 8.784e-05
*RES
1 *1627:Y 1626_1 1.02667
2 1626_1 1626_2 0
3 1626_2 *1628:B 0
4 1626_1 1626_3 1.21333
5 1626_3 1626_4 0.233333
6 1626_4 *1629:B 0
7 1626_4 1626_5 3.73333
8 1626_5 1626_6 1.16667
9 1626_6 1626_7 0.233333
10 1626_7 *1630:B 0
11 1626_7 1626_8 1.21333
12 1626_8 *1631:B 0
13 1626_5 1626_9 10.92
14 1626_9 1626_10 0.933333
15 1626_10 *1632:B 0
16 1626_9 1626_11 0.746667
17 1626_11 1626_12 1.16667
18 1626_12 *1633:B 0
19 1626_11 1626_13 10.0267
20 1626_13 1626_14 0.233333
21 1626_14 *1634:B 0
22 1626_14 1626_15 1.77333
23 1626_15 *1635:B 0
*END
*D_NET *1636 0.00255984
*CONN
*I *1637:Y O *D BUFX2
*I *1638:B I *L 0
*I *1639:B I *L 0
*I *1640:B I *L 0
*I *1641:B I *L 0
*I *1642:B I *L 0
*I *1643:B I *L 0
*I *1644:B I *L 0
*I *1645:B I *L 0
*CAP
1 1636_1 0.00033792
2 1636_2 0
3 1636_3 2.688e-05
4 1636_4 4.08e-05
5 1636_5 0.00018816
6 1636_6 2.016e-05
7 1636_7 0.00010752
8 1636_8 0.0001584
9 1636_9 0.00048216
10 1636_10 0
11 1636_11 2.688e-05
12 1636_12 4.08e-05
13 1636_13 0.00033576
14 1636_14 0.0007944
*RES
1 *1637:Y 1636_1 4.85333
2 1636_1 1636_2 0
3 1636_2 *1638:B 0
4 1636_1 1636_3 0.746667
5 1636_3 1636_4 0.466667
6 1636_4 *1639:B 0
7 1636_3 1636_5 5.22667
8 1636_5 1636_6 0.56
9 1636_6 1636_7 2.98667
10 1636_7 *1640:B 0
11 1636_7 1636_8 1.02667
12 1636_8 *1641:B 0
13 1636_6 1636_9 6.39333
14 1636_9 1636_10 0
15 1636_10 *1642:B 0
16 1636_9 1636_11 0.746667
17 1636_11 1636_12 0.466667
18 1636_12 *1643:B 0
19 1636_11 1636_13 4.43333
20 1636_13 *1644:B 0
21 1636_5 1636_14 8.86667
22 1636_14 *1645:B 0
*END
*D_NET *1646 0.00816984
*CONN
*I *1647:Y O *D _3406
*I *1648:A I *L 0
*I *1649:A I *L 0
*I *1650:A I *L 0
*I *1651:A I *L 0
*I *1652:A I *L 0
*I *1653:A I *L 0
*I *1654:A I *L 0
*I *1655:A I *L 0
*CAP
1 1646_1 0.0006252
2 1646_2 2.04e-05
3 1646_3 0.00091512
4 1646_4 0.000102
5 1646_5 0.00118728
6 1646_6 0.00032568
7 1646_7 0.00105888
8 1646_8 8.16e-05
9 1646_9 0.00031296
10 1646_10 0.0002304
11 1646_11 0.00095232
12 1646_12 0.0002208
13 1646_13 0.00105336
14 1646_14 2.04e-05
15 1646_15 0.00106344
*RES
1 *1647:Y 1646_1 7.7
2 1646_1 1646_2 0.233333
3 1646_2 *1648:A 0
4 1646_2 1646_3 23.7533
5 1646_3 1646_4 1.16667
6 1646_4 *1649:A 0
7 1646_3 1646_5 11.78
8 1646_5 1646_6 4.71333
9 1646_6 *1650:A 0
10 1646_5 1646_7 24.08
11 1646_7 1646_8 0.933333
12 1646_8 *1651:A 0
13 1646_7 1646_9 7.49333
14 1646_9 1646_10 1.6
15 1646_10 *1652:A 0
16 1646_9 1646_11 24.4533
17 1646_11 1646_12 2.24
18 1646_12 *1653:A 0
19 1646_11 1646_13 14.86
20 1646_13 1646_14 0.233333
21 1646_14 *1654:A 0
22 1646_14 1646_15 16.8067
23 1646_15 *1655:A 0
*END
*D_NET *1656 0.00175464
*CONN
*I *1657:Y O *D BUFX2
*I *1658:B I *L 0
*I *1659:B I *L 0
*I *1660:B I *L 0
*I *1661:B I *L 0
*I *1662:B I *L 0
*I *1663:B I *L 0
*I *1664:B I *L 0
*I *1665:B I *L 0
*CAP
1 1656_1 0.00027
2 1656_2 9.84e-05
3 1656_3 3.36e-05
4 1656_4 0
5 1656_5 2.688e-05
6 1656_6 9.84e-05
7 1656_7 3.36e-05
8 1656_8 0
9 1656_9 0.00084072
10 1656_10 8.4e-06
11 1656_11 0
12 1656_12 0.0002448
13 1656_13 3.264e-05
14 1656_14 2.688e-05
15 1656_15 4.032e-05
*RES
1 *1657:Y 1656_1 2.66
2 1656_1 1656_2 0.84
3 1656_2 *1658:B 0
4 1656_1 1656_3 0.933333
5 1656_3 1656_4 0
6 1656_4 *1659:B 0
7 1656_3 1656_5 0.746667
8 1656_5 1656_6 0.84
9 1656_6 *1660:B 0
10 1656_5 1656_7 0.933333
11 1656_7 1656_8 0
12 1656_8 *1661:B 0
13 1656_8 1656_9 7.68667
14 1656_9 1656_10 0.233333
15 1656_10 1656_11 0
16 1656_11 *1662:B 0
17 1656_11 1656_12 2.8
18 1656_12 1656_13 0.373333
19 1656_13 *1663:B 0
20 1656_12 1656_14 0.746667
21 1656_14 *1664:B 0
22 1656_10 1656_15 1.12
23 1656_15 *1665:B 0
*END
*D_NET *1666 0.00209544
*CONN
*I *1667:Y O *D BUFX2
*I *1668:B I *L 0
*I *1669:B I *L 0
*I *1670:B I *L 0
*I *1671:B I *L 0
*I *1672:B I *L 0
*I *1673:B I *L 0
*I *1674:B I *L 0
*I *1675:B I *L 0
*CAP
1 1666_1 0.00015552
2 1666_2 8.16e-05
3 1666_3 4.728e-05
4 1666_4 0.0002856
5 1666_5 0.00037944
6 1666_6 2.04e-05
7 1666_7 6.768e-05
8 1666_8 0
9 1666_9 0.00012168
10 1666_10 4.08e-05
11 1666_11 0.0002712
12 1666_12 2.04e-05
13 1666_13 0.00051576
14 1666_14 2.04e-05
15 1666_15 6.768e-05
*RES
1 *1667:Y 1666_1 2.98667
2 1666_1 1666_2 0.933333
3 1666_2 *1668:B 0
4 1666_1 1666_3 0.98
5 1666_3 1666_4 3.26667
6 1666_4 *1669:B 0
7 1666_3 1666_5 4.34
8 1666_5 1666_6 0.233333
9 1666_6 *1670:B 0
10 1666_6 1666_7 1.21333
11 1666_7 1666_8 0
12 1666_8 *1671:B 0
13 1666_8 1666_9 2.38
14 1666_9 1666_10 0.466667
15 1666_10 *1672:B 0
16 1666_9 1666_11 4.2
17 1666_11 1666_12 0.233333
18 1666_12 *1673:B 0
19 1666_12 1666_13 7.32667
20 1666_13 1666_14 0.233333
21 1666_14 *1674:B 0
22 1666_14 1666_15 1.21333
23 1666_15 *1675:B 0
*END
*D_NET *1676 0.00123432
*CONN
*I *1677:Y O *D BUFX2
*I *1678:B I *L 0
*I *1679:B I *L 0
*I *1680:B I *L 0
*I *1681:B I *L 0
*I *1682:B I *L 0
*I *1683:B I *L 0
*I *1684:B I *L 0
*I *1685:B I *L 0
*CAP
1 1676_1 0.00011856
2 1676_2 0
3 1676_3 2.688e-05
4 1676_4 4.08e-05
5 1676_5 0.00025752
6 1676_6 2.04e-05
7 1676_7 2.688e-05
8 1676_8 4.08e-05
9 1676_9 0.00029568
10 1676_10 0
11 1676_11 2.688e-05
12 1676_12 4.08e-05
13 1676_13 0.00027144
14 1676_14 4.08e-05
15 1676_15 2.688e-05
*RES
1 *1677:Y 1676_1 1.4
2 1676_1 1676_2 0
3 1676_2 *1678:B 0
4 1676_1 1676_3 0.746667
5 1676_3 1676_4 0.466667
6 1676_4 *1679:B 0
7 1676_3 1676_5 4.48667
8 1676_5 1676_6 0.233333
9 1676_6 *1680:B 0
10 1676_6 1676_7 0.746667
11 1676_7 1676_8 0.466667
12 1676_8 *1681:B 0
13 1676_7 1676_9 8.21333
14 1676_9 1676_10 0
15 1676_10 *1682:B 0
16 1676_9 1676_11 0.746667
17 1676_11 1676_12 0.466667
18 1676_12 *1683:B 0
19 1676_11 1676_13 3.87333
20 1676_13 1676_14 0.466667
21 1676_14 *1684:B 0
22 1676_13 1676_15 0.746667
23 1676_15 *1685:B 0
*END
*D_NET *1686 0.00210984
*CONN
*I *1687:Y O *D BUFX2
*I *1688:B I *L 0
*I *1689:B I *L 0
*I *1690:B I *L 0
*I *1691:B I *L 0
*I *1692:B I *L 0
*I *1693:B I *L 0
*I *1694:B I *L 0
*I *1695:B I *L 0
*CAP
1 1686_1 6.768e-05
2 1686_2 4.08e-05
3 1686_3 2.688e-05
4 1686_4 0
5 1686_5 0.00025872
6 1686_6 4.08e-05
7 1686_7 2.688e-05
8 1686_8 6.12e-05
9 1686_9 0.00069144
10 1686_10 6.12e-05
11 1686_11 6.768e-05
12 1686_12 2.04e-05
13 1686_13 0.00060072
14 1686_14 5.76e-05
15 1686_15 8.784e-05
*RES
1 *1687:Y 1686_1 1.21333
2 1686_1 1686_2 0.466667
3 1686_2 *1688:B 0
4 1686_1 1686_3 0.746667
5 1686_3 1686_4 0
6 1686_4 *1689:B 0
7 1686_3 1686_5 7.18667
8 1686_5 1686_6 0.466667
9 1686_6 *1690:B 0
10 1686_5 1686_7 0.746667
11 1686_7 1686_8 0.7
12 1686_8 *1691:B 0
13 1686_7 1686_9 9.00667
14 1686_9 1686_10 0.7
15 1686_10 *1692:B 0
16 1686_9 1686_11 1.21333
17 1686_11 1686_12 0.233333
18 1686_12 *1693:B 0
19 1686_12 1686_13 8.82
20 1686_13 1686_14 0.373333
21 1686_14 *1694:B 0
22 1686_13 1686_15 1.77333
23 1686_15 *1695:B 0
*END
*D_NET *1696 0.00376272
*CONN
*I *1697:Y O *D BUFX2
*I *1698:B I *L 0
*I *1699:B I *L 0
*I *1700:B I *L 0
*I *1701:B I *L 0
*I *1702:B I *L 0
*I *1703:B I *L 0
*I *1704:B I *L 0
*I *1705:B I *L 0
*CAP
1 1696_1 0.0018684
2 1696_2 0.00092352
3 1696_3 4.08e-05
4 1696_4 8.808e-05
5 1696_5 2.04e-05
6 1696_6 9.456e-05
7 1696_7 0
8 1696_8 0.00037632
9 1696_9 0
10 1696_10 8.112e-05
11 1696_11 2.04e-05
12 1696_12 0.00018144
13 1696_13 4.08e-05
14 1696_14 2.688e-05
*RES
1 *1697:Y 1696_1 21.7
2 1696_1 1696_2 16.6133
3 1696_2 1696_3 0.466667
4 1696_3 *1698:B 0
5 1696_2 1696_4 1.44667
6 1696_4 *1699:B 0
7 1696_1 1696_5 0.233333
8 1696_5 *1700:B 0
9 1696_5 1696_6 1.96
10 1696_6 1696_7 0
11 1696_7 *1701:B 0
12 1696_6 1696_8 6.25333
13 1696_8 1696_9 0
14 1696_9 *1702:B 0
15 1696_8 1696_10 1.58667
16 1696_10 1696_11 0.233333
17 1696_11 *1703:B 0
18 1696_11 1696_12 5.04
19 1696_12 1696_13 0.466667
20 1696_13 *1704:B 0
21 1696_12 1696_14 0.746667
22 1696_14 *1705:B 0
*END
*D_NET *1706 0.00329568
*CONN
*I *1707:Y O *D BUFX2
*I *1708:B I *L 0
*I *1709:B I *L 0
*I *1710:B I *L 0
*I *1711:B I *L 0
*I *1712:B I *L 0
*I *1713:B I *L 0
*I *1714:B I *L 0
*I *1715:B I *L 0
*CAP
1 1706_1 0.00109536
2 1706_2 6.72e-05
3 1706_3 0
4 1706_4 2.688e-05
5 1706_5 4.08e-05
6 1706_6 0.00043272
7 1706_7 2.04e-05
8 1706_8 6.768e-05
9 1706_9 0
10 1706_10 0.00081792
11 1706_11 2.04e-05
12 1706_12 0.0002784
13 1706_13 0.00029904
14 1706_14 6.12e-05
15 1706_15 6.768e-05
*RES
1 *1707:Y 1706_1 14.0933
2 1706_1 1706_2 1.86667
3 1706_2 1706_3 0
4 1706_3 *1708:B 0
5 1706_2 1706_4 0.746667
6 1706_4 1706_5 0.466667
7 1706_5 *1709:B 0
8 1706_4 1706_6 8.35333
9 1706_6 1706_7 0.233333
10 1706_7 *1710:B 0
11 1706_7 1706_8 1.21333
12 1706_8 1706_9 0
13 1706_9 *1711:B 0
14 1706_8 1706_10 16.0533
15 1706_10 1706_11 0.233333
16 1706_11 *1712:B 0
17 1706_11 1706_12 3.73333
18 1706_12 *1713:B 0
19 1706_1 1706_13 8.30667
20 1706_13 1706_14 0.7
21 1706_14 *1714:B 0
22 1706_13 1706_15 1.21333
23 1706_15 *1715:B 0
*END
*D_NET *1716 0.00292632
*CONN
*I *1717:Y O *D BUFX2
*I *1718:B I *L 0
*I *1719:B I *L 0
*I *1720:B I *L 0
*I *1721:B I *L 0
*I *1722:B I *L 0
*I *1723:B I *L 0
*I *1724:B I *L 0
*I *1725:B I *L 0
*CAP
1 1716_1 7.344e-05
2 1716_2 5.76e-05
3 1716_3 7.44e-05
4 1716_4 0
5 1716_5 0.0009912
6 1716_6 4.08e-05
7 1716_7 2.688e-05
8 1716_8 0
9 1716_9 0.0004644
10 1716_10 6.12e-05
11 1716_11 2.04e-05
12 1716_12 0.00083784
13 1716_13 6.12e-05
14 1716_14 0.00010848
15 1716_15 0.00010848
*RES
1 *1717:Y 1716_1 0.84
2 1716_1 1716_2 0.373333
3 1716_2 *1718:B 0
4 1716_1 1716_3 1.4
5 1716_3 1716_4 0
6 1716_4 *1719:B 0
7 1716_3 1716_5 13.5333
8 1716_5 1716_6 0.466667
9 1716_6 *1720:B 0
10 1716_5 1716_7 0.746667
11 1716_7 1716_8 0
12 1716_8 *1721:B 0
13 1716_8 1716_9 11.9
14 1716_9 1716_10 0.7
15 1716_10 1716_11 0.233333
16 1716_11 *1722:B 0
17 1716_11 1716_12 16.94
18 1716_12 1716_13 0.7
19 1716_13 *1723:B 0
20 1716_12 1716_14 1.68
21 1716_14 *1724:B 0
22 1716_9 1716_15 1.68
23 1716_15 *1725:B 0
*END
*D_NET *1726 0.0029244
*CONN
*I *1727:Y O *D BUFX2
*I *1728:B I *L 0
*I *1729:B I *L 0
*I *1730:B I *L 0
*I *1731:B I *L 0
*I *1732:B I *L 0
*I *1733:B I *L 0
*I *1734:B I *L 0
*I *1735:B I *L 0
*CAP
1 1726_1 0.00055584
2 1726_2 0.0003264
3 1726_3 9.84e-05
4 1726_4 8.4e-06
5 1726_5 6.72e-05
6 1726_6 0.00046872
7 1726_7 2.04e-05
8 1726_8 6.768e-05
9 1726_9 0.0007968
10 1726_10 4.08e-05
11 1726_11 2.688e-05
12 1726_12 0
13 1726_13 0.0003588
14 1726_14 2.04e-05
15 1726_15 6.768e-05
*RES
1 *1727:Y 1726_1 6.90667
2 1726_1 1726_2 3.73333
3 1726_2 1726_3 0.84
4 1726_3 *1728:B 0
5 1726_2 1726_4 0.233333
6 1726_4 1726_5 1.86667
7 1726_5 *1729:B 0
8 1726_4 1726_6 6.02
9 1726_6 1726_7 0.233333
10 1726_7 *1730:B 0
11 1726_7 1726_8 1.21333
12 1726_8 *1731:B 0
13 1726_1 1726_9 16.8
14 1726_9 1726_10 0.466667
15 1726_10 *1732:B 0
16 1726_9 1726_11 0.746667
17 1726_11 1726_12 0
18 1726_12 *1733:B 0
19 1726_11 1726_13 6.3
20 1726_13 1726_14 0.233333
21 1726_14 *1734:B 0
22 1726_14 1726_15 1.21333
23 1726_15 *1735:B 0
*END
*D_NET *1736 0.00910272
*CONN
*I *1737:Y O *D _3471
*I *1738:A I *L 0
*I *1739:A I *L 0
*I *1740:A I *L 0
*I *1741:A I *L 0
*I *1742:A I *L 0
*I *1743:A I *L 0
*I *1744:A I *L 0
*I *1745:A I *L 0
*CAP
1 1736_1 0.00020376
2 1736_2 6.12e-05
3 1736_3 0.00089232
4 1736_4 2.04e-05
5 1736_5 0.0002244
6 1736_6 0.00133272
7 1736_7 0.00019008
8 1736_8 0.00028224
9 1736_9 0.000102
10 1736_10 0.00066528
11 1736_11 0.00078792
12 1736_12 0.0020556
13 1736_13 0.00048096
14 1736_14 0.00021648
15 1736_15 0.00158736
*RES
1 *1737:Y 1736_1 2.66
2 1736_1 1736_2 0.7
3 1736_2 *1738:A 0
4 1736_1 1736_3 17.6533
5 1736_3 1736_4 0.233333
6 1736_4 *1739:A 0
7 1736_4 1736_5 2.56667
8 1736_5 1736_6 34.02
9 1736_6 1736_7 2.61333
10 1736_7 *1740:A 0
11 1736_6 1736_8 7.84
12 1736_8 1736_9 1.16667
13 1736_9 *1741:A 0
14 1736_8 1736_10 18.48
15 1736_10 1736_11 10.22
16 1736_11 *1742:A 0
17 1736_10 1736_12 21.6333
18 1736_12 1736_13 8.02667
19 1736_13 *1743:A 0
20 1736_12 1736_14 4.01333
21 1736_14 *1744:A 0
22 1736_5 1736_15 12.6933
23 1736_15 *1745:A 0
*END
*D_NET *1746 0.00207552
*CONN
*I *1747:Y O *D BUFX2
*I *1748:B I *L 0
*I *1749:B I *L 0
*I *1750:B I *L 0
*I *1751:B I *L 0
*I *1752:B I *L 0
*I *1753:B I *L 0
*I *1754:B I *L 0
*I *1755:B I *L 0
*CAP
1 1746_1 0.000294
2 1746_2 0.00035376
3 1746_3 2.04e-05
4 1746_4 0.00026496
5 1746_5 2.04e-05
6 1746_6 0.0001836
7 1746_7 0.00010824
8 1746_8 0
9 1746_9 6.768e-05
10 1746_10 0.00010752
11 1746_11 8.16e-05
12 1746_12 8.808e-05
13 1746_13 0.0004176
14 1746_14 4.08e-05
15 1746_15 2.688e-05
*RES
1 *1747:Y 1746_1 3.5
2 1746_1 1746_2 6.56
3 1746_2 1746_3 0.233333
4 1746_3 *1748:B 0
5 1746_3 1746_4 3.36
6 1746_4 1746_5 0.233333
7 1746_5 *1749:B 0
8 1746_5 1746_6 2.1
9 1746_6 1746_7 2.00667
10 1746_7 1746_8 0
11 1746_8 *1750:B 0
12 1746_7 1746_9 1.21333
13 1746_9 *1751:B 0
14 1746_6 1746_10 2.98667
15 1746_10 1746_11 0.933333
16 1746_11 *1752:B 0
17 1746_10 1746_12 1.44667
18 1746_12 *1753:B 0
19 1746_1 1746_13 10.2667
20 1746_13 1746_14 0.466667
21 1746_14 *1754:B 0
22 1746_13 1746_15 0.746667
23 1746_15 *1755:B 0
*END
*D_NET *1756 0.0013272
*CONN
*I *1757:Y O *D BUFX2
*I *1758:B I *L 0
*I *1759:B I *L 0
*I *1760:B I *L 0
*I *1761:B I *L 0
*I *1762:B I *L 0
*I *1763:B I *L 0
*I *1764:B I *L 0
*I *1765:B I *L 0
*CAP
1 1756_1 0.00026352
2 1756_2 4.08e-05
3 1756_3 2.688e-05
4 1756_4 6.12e-05
5 1756_5 0.00018144
6 1756_6 4.08e-05
7 1756_7 2.688e-05
8 1756_8 6.12e-05
9 1756_9 6.72e-05
10 1756_10 2.04e-05
11 1756_11 6.12e-05
12 1756_12 0.000204
13 1756_13 4.728e-05
14 1756_14 4.08e-05
15 1756_15 0.0001836
*RES
1 *1757:Y 1756_1 5.32
2 1756_1 1756_2 0.466667
3 1756_2 *1758:B 0
4 1756_1 1756_3 0.746667
5 1756_3 1756_4 0.7
6 1756_4 *1759:B 0
7 1756_3 1756_5 5.04
8 1756_5 1756_6 0.466667
9 1756_6 *1760:B 0
10 1756_5 1756_7 0.746667
11 1756_7 1756_8 0.7
12 1756_8 *1761:B 0
13 1756_7 1756_9 1.86667
14 1756_9 1756_10 0.233333
15 1756_10 1756_11 0.7
16 1756_11 *1762:B 0
17 1756_10 1756_12 2.33333
18 1756_12 *1763:B 0
19 1756_9 1756_13 0.98
20 1756_13 1756_14 0.466667
21 1756_14 *1764:B 0
22 1756_13 1756_15 2.1
23 1756_15 *1765:B 0
*END
*D_NET *1766 0.00246864
*CONN
*I *1767:Y O *D BUFX2
*I *1768:B I *L 0
*I *1769:B I *L 0
*I *1770:B I *L 0
*I *1771:B I *L 0
*I *1772:B I *L 0
*I *1773:B I *L 0
*I *1774:B I *L 0
*I *1775:B I *L 0
*CAP
1 1766_1 4.92e-05
2 1766_2 0.000168
3 1766_3 0.00019632
4 1766_4 0.0005508
5 1766_5 2.04e-05
6 1766_6 8.4e-06
7 1766_7 4.704e-05
8 1766_8 8.112e-05
9 1766_9 0.00067296
10 1766_10 2.04e-05
11 1766_11 4.92e-05
12 1766_12 2.688e-05
13 1766_13 0.00021504
14 1766_14 0
15 1766_15 0.00036288
*RES
1 *1767:Y 1766_1 0.7
2 1766_1 1766_2 4.66667
3 1766_2 1766_3 3.45333
4 1766_3 *1768:B 0
5 1766_2 1766_4 6.3
6 1766_4 1766_5 0.233333
7 1766_5 *1769:B 0
8 1766_5 1766_6 0.233333
9 1766_6 1766_7 1.30667
10 1766_7 *1770:B 0
11 1766_6 1766_8 1.58667
12 1766_8 *1771:B 0
13 1766_1 1766_9 16.8267
14 1766_9 1766_10 0.233333
15 1766_10 *1772:B 0
16 1766_10 1766_11 0.7
17 1766_11 1766_12 0.746667
18 1766_12 *1773:B 0
19 1766_11 1766_13 1.77333
20 1766_13 1766_14 0
21 1766_14 *1774:B 0
22 1766_14 1766_15 4.85333
23 1766_15 *1775:B 0
*END
*D_NET *1776 0.00203352
*CONN
*I *1777:Y O *D BUFX2
*I *1778:B I *L 0
*I *1779:B I *L 0
*I *1780:B I *L 0
*I *1781:B I *L 0
*I *1782:B I *L 0
*I *1783:B I *L 0
*I *1784:B I *L 0
*I *1785:B I *L 0
*CAP
1 1776_1 2.04e-05
2 1776_2 0.0003468
3 1776_3 2.04e-05
4 1776_4 6.768e-05
5 1776_5 0.00063432
6 1776_6 8.4e-06
7 1776_7 0.00011424
8 1776_8 0
9 1776_9 6.768e-05
10 1776_10 0.00012096
11 1776_11 4.08e-05
12 1776_12 2.688e-05
13 1776_13 0.00049728
14 1776_14 0
15 1776_15 6.768e-05
*RES
1 *1777:Y 1776_1 0.233333
2 1776_1 1776_2 3.96667
3 1776_2 1776_3 0.233333
4 1776_3 *1778:B 0
5 1776_3 1776_4 1.21333
6 1776_4 *1779:B 0
7 1776_1 1776_5 6.22
8 1776_5 1776_6 0.233333
9 1776_6 1776_7 3.17333
10 1776_7 1776_8 0
11 1776_8 *1780:B 0
12 1776_7 1776_9 1.21333
13 1776_9 *1781:B 0
14 1776_6 1776_10 3.36
15 1776_10 1776_11 0.466667
16 1776_11 *1782:B 0
17 1776_10 1776_12 0.746667
18 1776_12 *1783:B 0
19 1776_5 1776_13 5.41333
20 1776_13 1776_14 0
21 1776_14 *1784:B 0
22 1776_13 1776_15 1.21333
23 1776_15 *1785:B 0
*END
*D_NET *1786 0.001806
*CONN
*I *1787:Y O *D BUFX2
*I *1788:B I *L 0
*I *1789:B I *L 0
*I *1790:B I *L 0
*I *1791:B I *L 0
*I *1792:B I *L 0
*I *1793:B I *L 0
*I *1794:B I *L 0
*I *1795:B I *L 0
*CAP
1 1786_1 8.808e-05
2 1786_2 0
3 1786_3 2.688e-05
4 1786_4 4.08e-05
5 1786_5 0.0005136
6 1786_6 2.04e-05
7 1786_7 6.768e-05
8 1786_8 0
9 1786_9 2.88e-05
10 1786_10 0.00040608
11 1786_11 0
12 1786_12 6.768e-05
13 1786_13 0.00037632
14 1786_14 8.16e-05
15 1786_15 8.808e-05
*RES
1 *1787:Y 1786_1 1.44667
2 1786_1 1786_2 0
3 1786_2 *1788:B 0
4 1786_1 1786_3 0.746667
5 1786_3 1786_4 0.466667
6 1786_4 *1789:B 0
7 1786_3 1786_5 10.2667
8 1786_5 1786_6 0.233333
9 1786_6 *1790:B 0
10 1786_6 1786_7 1.21333
11 1786_7 1786_8 0
12 1786_8 *1791:B 0
13 1786_7 1786_9 0.2
14 1786_9 1786_10 5.48
15 1786_10 1786_11 0
16 1786_11 *1792:B 0
17 1786_10 1786_12 1.21333
18 1786_12 *1793:B 0
19 1786_9 1786_13 10.4533
20 1786_13 1786_14 0.933333
21 1786_14 *1794:B 0
22 1786_13 1786_15 1.44667
23 1786_15 *1795:B 0
*END
*D_NET *1796 0.00137496
*CONN
*I *1797:Y O *D BUFX2
*I *1798:B I *L 0
*I *1799:B I *L 0
*I *1800:B I *L 0
*I *1801:B I *L 0
*I *1802:B I *L 0
*I *1803:B I *L 0
*I *1804:B I *L 0
*I *1805:B I *L 0
*CAP
1 1796_1 8.4e-06
2 1796_2 0.00017472
3 1796_3 4.08e-05
4 1796_4 8.808e-05
5 1796_5 0.00018144
6 1796_6 6.12e-05
7 1796_7 6.72e-05
8 1796_8 2.688e-05
9 1796_9 6.12e-05
10 1796_10 2.688e-05
11 1796_11 4.08e-05
12 1796_12 2.016e-05
13 1796_13 9.84e-05
14 1796_14 0.0002376
15 1796_15 0.0002412
*RES
1 *1797:Y 1796_1 0.233333
2 1796_1 1796_2 4.85333
3 1796_2 1796_3 0.466667
4 1796_3 *1798:B 0
5 1796_2 1796_4 1.44667
6 1796_4 *1799:B 0
7 1796_1 1796_5 5.04
8 1796_5 1796_6 0.7
9 1796_6 *1800:B 0
10 1796_5 1796_7 1.86667
11 1796_7 1796_8 0.746667
12 1796_8 1796_9 0.7
13 1796_9 *1801:B 0
14 1796_8 1796_10 0.746667
15 1796_10 1796_11 0.466667
16 1796_11 *1802:B 0
17 1796_10 1796_12 0.56
18 1796_12 1796_13 0.84
19 1796_13 *1803:B 0
20 1796_12 1796_14 3.26667
21 1796_14 *1804:B 0
22 1796_7 1796_15 2.47333
23 1796_15 *1805:B 0
*END
*D_NET *1806 0.00160728
*CONN
*I *1807:Y O *D BUFX2
*I *1808:B I *L 0
*I *1809:B I *L 0
*I *1810:B I *L 0
*I *1811:B I *L 0
*I *1812:B I *L 0
*I *1813:B I *L 0
*I *1814:B I *L 0
*I *1815:B I *L 0
*CAP
1 1806_1 0.0001512
2 1806_2 0.00011856
3 1806_3 3.36e-05
4 1806_4 0
5 1806_5 0.00056544
6 1806_6 0
7 1806_7 6.768e-05
8 1806_8 2.04e-05
9 1806_9 0.00046104
10 1806_10 2.04e-05
11 1806_11 6.768e-05
12 1806_12 0
13 1806_13 3.36e-05
14 1806_14 4.08e-05
15 1806_15 2.688e-05
*RES
1 *1807:Y 1806_1 1.86667
2 1806_1 1806_2 1.4
3 1806_2 *1808:B 0
4 1806_1 1806_3 0.933333
5 1806_3 1806_4 0
6 1806_4 *1809:B 0
7 1806_3 1806_5 7.70667
8 1806_5 1806_6 0
9 1806_6 *1810:B 0
10 1806_5 1806_7 1.21333
11 1806_7 1806_8 0.233333
12 1806_8 *1811:B 0
13 1806_8 1806_9 5.27333
14 1806_9 1806_10 0.233333
15 1806_10 *1812:B 0
16 1806_10 1806_11 1.21333
17 1806_11 1806_12 0
18 1806_12 *1813:B 0
19 1806_11 1806_13 0.933333
20 1806_13 1806_14 0.466667
21 1806_14 *1814:B 0
22 1806_13 1806_15 0.746667
23 1806_15 *1815:B 0
*END
*D_NET *1816 0.0021912
*CONN
*I *1817:Y O *D BUFX2
*I *1818:B I *L 0
*I *1819:B I *L 0
*I *1820:B I *L 0
*I *1821:B I *L 0
*I *1822:B I *L 0
*I *1823:B I *L 0
*I *1824:B I *L 0
*I *1825:B I *L 0
*CAP
1 1816_1 0.00053184
2 1816_2 0.00027744
3 1816_3 2.04e-05
4 1816_4 6.768e-05
5 1816_5 0.0002856
6 1816_6 2.04e-05
7 1816_7 6.768e-05
8 1816_8 0.00032928
9 1816_9 0.000102
10 1816_10 1.344e-05
11 1816_11 0.00010176
12 1816_12 0.0002856
13 1816_13 2.04e-05
14 1816_14 6.768e-05
*RES
1 *1817:Y 1816_1 13.44
2 1816_1 1816_2 5.04
3 1816_2 1816_3 0.233333
4 1816_3 *1818:B 0
5 1816_3 1816_4 1.21333
6 1816_4 *1819:B 0
7 1816_1 1816_5 3.26667
8 1816_5 1816_6 0.233333
9 1816_6 *1820:B 0
10 1816_6 1816_7 1.21333
11 1816_7 *1821:B 0
12 1816_1 1816_8 9.14667
13 1816_8 1816_9 1.16667
14 1816_9 *1822:B 0
15 1816_8 1816_10 0.373333
16 1816_10 1816_11 1.49333
17 1816_11 *1823:B 0
18 1816_10 1816_12 3.26667
19 1816_12 1816_13 0.233333
20 1816_13 *1824:B 0
21 1816_13 1816_14 1.21333
22 1816_14 *1825:B 0
*END
*D_NET *1826 0.00853368
*CONN
*I *1827:Y O *D _2103
*I *1828:A I *L 0
*I *1829:A I *L 0
*I *1830:A I *L 0
*I *1831:A I *L 0
*I *1832:A I *L 0
*I *1833:A I *L 0
*I *1834:A I *L 0
*I *1835:A I *L 0
*CAP
1 1826_1 8.64e-05
2 1826_2 0.00160656
3 1826_3 0.00021984
4 1826_4 6.72e-05
5 1826_5 0.00129336
6 1826_6 0.0010428
7 1826_7 2.04e-05
8 1826_8 0.00066384
9 1826_9 0.00062328
10 1826_10 0.00100896
11 1826_11 0.0008064
12 1826_12 8.16e-05
13 1826_13 0.00073944
14 1826_14 0.0002736
*RES
1 *1827:Y 1826_1 0.56
2 1826_1 *1828:A 0
3 1826_1 1826_2 26.56
4 1826_2 1826_3 2.50667
5 1826_3 1826_4 1.86667
6 1826_4 *1829:A 0
7 1826_3 1826_5 15.5267
8 1826_5 *1830:A 0
9 1826_2 1826_6 22.7667
10 1826_6 1826_7 0.233333
11 1826_7 *1831:A 0
12 1826_7 1826_8 15.7733
13 1826_8 1826_9 7.11333
14 1826_9 *1832:A 0
15 1826_8 1826_10 8.82667
16 1826_10 1826_11 22.4
17 1826_11 1826_12 0.933333
18 1826_12 *1833:A 0
19 1826_11 1826_13 5.87333
20 1826_13 *1834:A 0
21 1826_10 1826_14 3.26667
22 1826_14 *1835:A 0
*END
*D_NET *1836 0.00320112
*CONN
*I *1837:Y O *D BUFX2
*I *1838:B I *L 0
*I *1839:B I *L 0
*I *1840:B I *L 0
*I *1841:B I *L 0
*I *1842:B I *L 0
*I *1843:B I *L 0
*I *1844:B I *L 0
*I *1845:B I *L 0
*CAP
1 1836_1 0.00012144
2 1836_2 8.4e-06
3 1836_3 8.64e-05
4 1836_4 8.112e-05
5 1836_5 0.0005304
6 1836_6 0.00085752
7 1836_7 2.04e-05
8 1836_8 2.688e-05
9 1836_9 4.08e-05
10 1836_10 0.00060096
11 1836_11 0
12 1836_12 6.768e-05
13 1836_13 0.00044352
14 1836_14 0.00018
15 1836_15 0.0001356
*RES
1 *1837:Y 1836_1 2.70667
2 1836_1 1836_2 0.233333
3 1836_2 1836_3 0.56
4 1836_3 *1838:B 0
5 1836_2 1836_4 1.58667
6 1836_4 *1839:B 0
7 1836_2 1836_5 6.06667
8 1836_5 1836_6 9.82
9 1836_6 1836_7 0.233333
10 1836_7 *1840:B 0
11 1836_7 1836_8 0.746667
12 1836_8 1836_9 0.466667
13 1836_9 *1841:B 0
14 1836_8 1836_10 12.6933
15 1836_10 1836_11 0
16 1836_11 *1842:B 0
17 1836_10 1836_12 1.21333
18 1836_12 *1843:B 0
19 1836_5 1836_13 12.32
20 1836_13 1836_14 1.77333
21 1836_14 *1844:B 0
22 1836_13 1836_15 2.1
23 1836_15 *1845:B 0
*END
*D_NET *1846 0.00122712
*CONN
*I *1847:Y O *D BUFX2
*I *1848:B I *L 0
*I *1849:B I *L 0
*I *1850:B I *L 0
*I *1851:B I *L 0
*I *1852:B I *L 0
*I *1853:B I *L 0
*I *1854:B I *L 0
*I *1855:B I *L 0
*CAP
1 1846_1 0.0001716
2 1846_2 7.392e-05
3 1846_3 0
4 1846_4 2.688e-05
5 1846_5 4.08e-05
6 1846_6 4.704e-05
7 1846_7 4.08e-05
8 1846_8 2.688e-05
9 1846_9 0.00018144
10 1846_10 4.08e-05
11 1846_11 2.688e-05
12 1846_12 0
13 1846_13 0.0004824
14 1846_14 0
15 1846_15 6.768e-05
*RES
1 *1847:Y 1846_1 2.1
2 1846_1 1846_2 2.05333
3 1846_2 1846_3 0
4 1846_3 *1848:B 0
5 1846_2 1846_4 0.746667
6 1846_4 1846_5 0.466667
7 1846_5 *1849:B 0
8 1846_4 1846_6 1.30667
9 1846_6 1846_7 0.466667
10 1846_7 *1850:B 0
11 1846_6 1846_8 0.746667
12 1846_8 *1851:B 0
13 1846_1 1846_9 5.04
14 1846_9 1846_10 0.466667
15 1846_10 *1852:B 0
16 1846_9 1846_11 0.746667
17 1846_11 1846_12 0
18 1846_12 *1853:B 0
19 1846_12 1846_13 6.06667
20 1846_13 1846_14 0
21 1846_14 *1854:B 0
22 1846_13 1846_15 1.21333
23 1846_15 *1855:B 0
*END
*D_NET *1856 0.00317088
*CONN
*I *1857:Y O *D BUFX2
*I *1858:B I *L 0
*I *1859:B I *L 0
*I *1860:B I *L 0
*I *1861:B I *L 0
*I *1862:B I *L 0
*I *1863:B I *L 0
*I *1864:B I *L 0
*I *1865:B I *L 0
*CAP
1 1856_1 4.92e-05
2 1856_2 0.00025536
3 1856_3 0.00016944
4 1856_4 0.0003264
5 1856_5 2.04e-05
6 1856_6 0.00045336
7 1856_7 2.04e-05
8 1856_8 0.00038304
9 1856_9 0.0005256
10 1856_10 9.84e-05
11 1856_11 3.36e-05
12 1856_12 0
13 1856_13 0.0005844
14 1856_14 0.0001224
15 1856_15 0.00012888
*RES
1 *1857:Y 1856_1 0.7
2 1856_1 1856_2 7.09333
3 1856_2 1856_3 2.70667
4 1856_3 *1858:B 0
5 1856_2 1856_4 3.73333
6 1856_4 1856_5 0.233333
7 1856_5 *1859:B 0
8 1856_5 1856_6 8.26
9 1856_6 1856_7 0.233333
10 1856_7 *1860:B 0
11 1856_7 1856_8 5.41333
12 1856_8 *1861:B 0
13 1856_1 1856_9 12.6
14 1856_9 1856_10 0.84
15 1856_10 *1862:B 0
16 1856_9 1856_11 0.933333
17 1856_11 1856_12 0
18 1856_12 *1863:B 0
19 1856_12 1856_13 7.23333
20 1856_13 1856_14 1.4
21 1856_14 *1864:B 0
22 1856_13 1856_15 1.91333
23 1856_15 *1865:B 0
*END
*D_NET *1866 0.00260664
*CONN
*I *1867:Y O *D BUFX2
*I *1868:B I *L 0
*I *1869:B I *L 0
*I *1870:B I *L 0
*I *1871:B I *L 0
*I *1872:B I *L 0
*I *1873:B I *L 0
*I *1874:B I *L 0
*I *1875:B I *L 0
*CAP
1 1866_1 0.00015456
2 1866_2 0.00044016
3 1866_3 0
4 1866_4 6.768e-05
5 1866_5 0.0009636
6 1866_6 0.0001836
7 1866_7 2.04e-05
8 1866_8 8.112e-05
9 1866_9 0
10 1866_10 7.392e-05
11 1866_11 0
12 1866_12 6.768e-05
13 1866_13 0.00026856
14 1866_14 0.00026496
15 1866_15 2.04e-05
*RES
1 *1867:Y 1866_1 4.29333
2 1866_1 1866_2 7.56
3 1866_2 1866_3 0
4 1866_3 *1868:B 0
5 1866_2 1866_4 1.21333
6 1866_4 *1869:B 0
7 1866_1 1866_5 9.5
8 1866_5 1866_6 2.1
9 1866_6 1866_7 0.233333
10 1866_7 *1870:B 0
11 1866_7 1866_8 1.58667
12 1866_8 1866_9 0
13 1866_9 *1871:B 0
14 1866_8 1866_10 2.05333
15 1866_10 1866_11 0
16 1866_11 *1872:B 0
17 1866_10 1866_12 1.21333
18 1866_12 *1873:B 0
19 1866_5 1866_13 5.92667
20 1866_13 1866_14 3.36
21 1866_14 *1874:B 0
22 1866_13 1866_15 0.233333
23 1866_15 *1875:B 0
*END
*D_NET *1876 0.003624
*CONN
*I *1877:Y O *D BUFX2
*I *1878:B I *L 0
*I *1879:B I *L 0
*I *1880:B I *L 0
*I *1881:B I *L 0
*I *1882:B I *L 0
*I *1883:B I *L 0
*I *1884:B I *L 0
*I *1885:B I *L 0
*CAP
1 1876_1 0.00066624
2 1876_2 0.0003384
3 1876_3 2.04e-05
4 1876_4 6.768e-05
5 1876_5 0.00039072
6 1876_6 0.0001224
7 1876_7 0.00020976
8 1876_8 2.04e-05
9 1876_9 0.00050112
10 1876_10 0.00024216
11 1876_11 0.000306
12 1876_12 2.04e-05
13 1876_13 0.00063024
14 1876_14 2.04e-05
15 1876_15 6.768e-05
*RES
1 *1877:Y 1876_1 6.97333
2 1876_1 1876_2 6.06667
3 1876_2 1876_3 0.233333
4 1876_3 *1878:B 0
5 1876_3 1876_4 1.21333
6 1876_4 *1879:B 0
7 1876_1 1876_5 9.85333
8 1876_5 1876_6 1.4
9 1876_6 *1880:B 0
10 1876_5 1876_7 3.82667
11 1876_7 1876_8 0.233333
12 1876_8 *1881:B 0
13 1876_8 1876_9 8.58667
14 1876_9 1876_10 3.22
15 1876_10 *1882:B 0
16 1876_9 1876_11 3.5
17 1876_11 1876_12 0.233333
18 1876_12 *1883:B 0
19 1876_12 1876_13 10.1733
20 1876_13 1876_14 0.233333
21 1876_14 *1884:B 0
22 1876_14 1876_15 1.21333
23 1876_15 *1885:B 0
*END
*D_NET *1886 0.00195
*CONN
*I *1887:Y O *D BUFX2
*I *1888:B I *L 0
*I *1889:B I *L 0
*I *1890:B I *L 0
*I *1891:B I *L 0
*I *1892:B I *L 0
*I *1893:B I *L 0
*I *1894:B I *L 0
*I *1895:B I *L 0
*CAP
1 1886_1 0.0001512
2 1886_2 4.032e-05
3 1886_3 8.112e-05
4 1886_4 2.04e-05
5 1886_5 0.000282
6 1886_6 0.00065832
7 1886_7 2.04e-05
8 1886_8 9.456e-05
9 1886_9 0.00022176
10 1886_10 2.016e-05
11 1886_11 4.08e-05
12 1886_12 2.688e-05
13 1886_13 0.000204
14 1886_14 2.04e-05
15 1886_15 6.768e-05
*RES
1 *1887:Y 1886_1 1.86667
2 1886_1 1886_2 1.12
3 1886_2 1886_3 1.58667
4 1886_3 1886_4 0.233333
5 1886_4 *1888:B 0
6 1886_4 1886_5 2.94
7 1886_5 *1889:B 0
8 1886_2 1886_6 6.42
9 1886_6 1886_7 0.233333
10 1886_7 *1890:B 0
11 1886_7 1886_8 1.96
12 1886_8 *1891:B 0
13 1886_1 1886_9 6.16
14 1886_9 1886_10 0.56
15 1886_10 1886_11 0.466667
16 1886_11 *1892:B 0
17 1886_10 1886_12 0.746667
18 1886_12 *1893:B 0
19 1886_9 1886_13 2.33333
20 1886_13 1886_14 0.233333
21 1886_14 *1894:B 0
22 1886_14 1886_15 1.21333
23 1886_15 *1895:B 0
*END
*D_NET *1896 0.00186984
*CONN
*I *1897:Y O *D BUFX2
*I *1898:B I *L 0
*I *1899:B I *L 0
*I *1900:B I *L 0
*I *1901:B I *L 0
*I *1902:B I *L 0
*I *1903:B I *L 0
*I *1904:B I *L 0
*I *1905:B I *L 0
*CAP
1 1896_1 6.072e-05
2 1896_2 0.0001632
3 1896_3 2.04e-05
4 1896_4 6.768e-05
5 1896_5 0
6 1896_6 0.00058968
7 1896_7 0
8 1896_8 6.768e-05
9 1896_9 0.0004452
10 1896_10 9.696e-05
11 1896_11 6.12e-05
12 1896_12 0.00010848
13 1896_13 0.00012096
14 1896_14 0
15 1896_15 6.768e-05
*RES
1 *1897:Y 1896_1 1.35333
2 1896_1 1896_2 1.86667
3 1896_2 1896_3 0.233333
4 1896_3 *1898:B 0
5 1896_3 1896_4 1.21333
6 1896_4 1896_5 0
7 1896_5 *1899:B 0
8 1896_4 1896_6 9.38
9 1896_6 1896_7 0
10 1896_7 *1900:B 0
11 1896_6 1896_8 1.21333
12 1896_8 *1901:B 0
13 1896_1 1896_9 4.83333
14 1896_9 1896_10 1.09333
15 1896_10 1896_11 0.7
16 1896_11 *1902:B 0
17 1896_10 1896_12 1.68
18 1896_12 *1903:B 0
19 1896_9 1896_13 3.36
20 1896_13 1896_14 0
21 1896_14 *1904:B 0
22 1896_13 1896_15 1.21333
23 1896_15 *1905:B 0
*END
*D_NET *1906 0.0025368
*CONN
*I *1907:Y O *D BUFX2
*I *1908:B I *L 0
*I *1909:B I *L 0
*I *1910:B I *L 0
*I *1911:B I *L 0
*I *1912:B I *L 0
*I *1913:B I *L 0
*I *1914:B I *L 0
*I *1915:B I *L 0
*CAP
1 1906_1 0.000312
2 1906_2 7.392e-05
3 1906_3 4.8e-05
4 1906_4 0.00011184
5 1906_5 0.0002016
6 1906_6 0.0003468
7 1906_7 2.04e-05
8 1906_8 0.000132
9 1906_9 0.00044448
10 1906_10 0.00031128
11 1906_11 2.04e-05
12 1906_12 6.768e-05
13 1906_13 0.000288
14 1906_14 0.0001584
*RES
1 *1907:Y 1906_1 2.53333
2 1906_1 1906_2 2.05333
3 1906_2 *1908:B 0
4 1906_1 1906_3 0.333333
5 1906_3 1906_4 1.24
6 1906_4 *1909:B 0
7 1906_3 1906_5 5.6
8 1906_5 1906_6 3.96667
9 1906_6 1906_7 0.233333
10 1906_7 *1910:B 0
11 1906_7 1906_8 1.77333
12 1906_8 *1911:B 0
13 1906_5 1906_9 7.14667
14 1906_9 1906_10 5.64667
15 1906_10 1906_11 0.233333
16 1906_11 *1912:B 0
17 1906_11 1906_12 1.21333
18 1906_12 *1913:B 0
19 1906_9 1906_13 2
20 1906_13 *1914:B 0
21 1906_13 1906_14 1.02667
22 1906_14 *1915:B 0
*END
*D_NET *1916 0.00982224
*CONN
*I *1917:Y O *D _3603
*I *1918:A I *L 0
*I *1919:A I *L 0
*I *1920:A I *L 0
*I *1921:A I *L 0
*I *1922:A I *L 0
*I *1923:A I *L 0
*I *1924:A I *L 0
*I *1925:A I *L 0
*CAP
1 1916_1 0.002088
2 1916_2 0.00074328
3 1916_3 0.00028128
4 1916_4 0.00068568
5 1916_5 6.12e-05
6 1916_6 0.0013392
7 1916_7 0.00067872
8 1916_8 5.376e-05
9 1916_9 6.12e-05
10 1916_10 0.00035856
11 1916_11 0.000288
12 1916_12 0.00147888
13 1916_13 2.04e-05
14 1916_14 0.00166368
15 1916_15 2.04e-05
*RES
1 *1917:Y 1916_1 20.2667
2 1916_1 1916_2 6.91333
3 1916_2 1916_3 3.21333
4 1916_3 *1918:A 0
5 1916_2 1916_4 18.7133
6 1916_4 1916_5 0.7
7 1916_5 *1919:A 0
8 1916_4 1916_6 34.5333
9 1916_6 1916_7 18.8533
10 1916_7 1916_8 1.49333
11 1916_8 1916_9 0.7
12 1916_9 *1920:A 0
13 1916_8 1916_10 6.62667
14 1916_10 *1921:A 0
15 1916_7 1916_11 2
16 1916_11 *1922:A 0
17 1916_6 1916_12 13.48
18 1916_12 1916_13 0.233333
19 1916_13 *1923:A 0
20 1916_13 1916_14 19.52
21 1916_14 *1924:A 0
22 1916_1 1916_15 0.233333
23 1916_15 *1925:A 0
*END
*D_NET *1926 0.00234528
*CONN
*I *1927:Y O *D BUFX2
*I *1928:B I *L 0
*I *1929:B I *L 0
*I *1930:B I *L 0
*I *1931:B I *L 0
*I *1932:B I *L 0
*I *1933:B I *L 0
*I *1934:B I *L 0
*I *1935:B I *L 0
*CAP
1 1926_1 6.96e-05
2 1926_2 0.0001356
3 1926_3 0.00014112
4 1926_4 0.0001224
5 1926_5 2.04e-05
6 1926_6 0.000258
7 1926_7 0.00013464
8 1926_8 0.0002856
9 1926_9 6.12e-05
10 1926_10 6.768e-05
11 1926_11 0.0003108
12 1926_12 0
13 1926_13 0.00064464
14 1926_14 7.344e-05
15 1926_15 2.016e-05
*RES
1 *1927:Y 1926_1 0.933333
2 1926_1 1926_2 2.1
3 1926_2 *1928:B 0
4 1926_1 1926_3 3.92
5 1926_3 1926_4 1.4
6 1926_4 1926_5 0.233333
7 1926_5 *1929:B 0
8 1926_5 1926_6 3.5
9 1926_6 *1930:B 0
10 1926_3 1926_7 3.40667
11 1926_7 1926_8 3.26667
12 1926_8 1926_9 0.7
13 1926_9 *1931:B 0
14 1926_8 1926_10 1.21333
15 1926_10 *1932:B 0
16 1926_7 1926_11 6.3
17 1926_11 1926_12 0
18 1926_12 *1933:B 0
19 1926_12 1926_13 7.37333
20 1926_13 1926_14 0.84
21 1926_14 *1934:B 0
22 1926_13 1926_15 0.56
23 1926_15 *1935:B 0
*END
*D_NET *1936 0.00161208
*CONN
*I *1937:Y O *D BUFX2
*I *1938:B I *L 0
*I *1939:B I *L 0
*I *1940:B I *L 0
*I *1941:B I *L 0
*I *1942:B I *L 0
*I *1943:B I *L 0
*I *1944:B I *L 0
*I *1945:B I *L 0
*CAP
1 1936_1 9e-05
2 1936_2 0.00011424
3 1936_3 8.16e-05
4 1936_4 2.688e-05
5 1936_5 0.000102
6 1936_6 8.064e-05
7 1936_7 0.000102
8 1936_8 2.688e-05
9 1936_9 8.16e-05
10 1936_10 0.00033768
11 1936_11 2.04e-05
12 1936_12 6.768e-05
13 1936_13 0.00014136
14 1936_14 0.000102
15 1936_15 0.00023712
*RES
1 *1937:Y 1936_1 1.16667
2 1936_1 1936_2 3.17333
3 1936_2 1936_3 0.933333
4 1936_3 *1938:B 0
5 1936_2 1936_4 0.746667
6 1936_4 1936_5 1.16667
7 1936_5 *1939:B 0
8 1936_4 1936_6 2.24
9 1936_6 1936_7 1.16667
10 1936_7 *1940:B 0
11 1936_6 1936_8 0.746667
12 1936_8 1936_9 0.933333
13 1936_9 *1941:B 0
14 1936_8 1936_10 7.04667
15 1936_10 1936_11 0.233333
16 1936_11 *1942:B 0
17 1936_11 1936_12 1.21333
18 1936_12 *1943:B 0
19 1936_1 1936_13 3.59333
20 1936_13 1936_14 1.16667
21 1936_14 *1944:B 0
22 1936_13 1936_15 3.92
23 1936_15 *1945:B 0
*END
*D_NET *1946 0.00233328
*CONN
*I *1947:Y O *D BUFX2
*I *1948:B I *L 0
*I *1949:B I *L 0
*I *1950:B I *L 0
*I *1951:B I *L 0
*I *1952:B I *L 0
*I *1953:B I *L 0
*I *1954:B I *L 0
*I *1955:B I *L 0
*CAP
1 1946_1 0.00020328
2 1946_2 8.064e-05
3 1946_3 0.0002196
4 1946_4 1.344e-05
5 1946_5 0.00030912
6 1946_6 0
7 1946_7 0.00011424
8 1946_8 0.0001632
9 1946_9 0.00024864
10 1946_10 0.00014112
11 1946_11 8.16e-05
12 1946_12 8.808e-05
13 1946_13 0.0005688
14 1946_14 2.04e-05
15 1946_15 8.112e-05
*RES
1 *1947:Y 1946_1 3.31333
2 1946_1 1946_2 2.24
3 1946_2 *1948:B 0
4 1946_1 1946_3 1.7
5 1946_3 1946_4 0.373333
6 1946_4 *1949:B 0
7 1946_3 1946_5 8.58667
8 1946_5 1946_6 0
9 1946_6 *1950:B 0
10 1946_6 1946_7 1.30667
11 1946_7 1946_8 1.86667
12 1946_8 *1951:B 0
13 1946_7 1946_9 6.90667
14 1946_9 1946_10 3.92
15 1946_10 1946_11 0.933333
16 1946_11 *1952:B 0
17 1946_10 1946_12 1.44667
18 1946_12 *1953:B 0
19 1946_9 1946_13 5.2
20 1946_13 1946_14 0.233333
21 1946_14 *1954:B 0
22 1946_14 1946_15 1.58667
23 1946_15 *1955:B 0
*END
*D_NET *1956 0.0012204
*CONN
*I *1957:Y O *D BUFX2
*I *1958:B I *L 0
*I *1959:B I *L 0
*I *1960:B I *L 0
*I *1961:B I *L 0
*I *1962:B I *L 0
*I *1963:B I *L 0
*I *1964:B I *L 0
*I *1965:B I *L 0
*CAP
1 1956_1 0.00011856
2 1956_2 0
3 1956_3 2.688e-05
4 1956_4 4.08e-05
5 1956_5 0.0003384
6 1956_6 2.04e-05
7 1956_7 6.96e-05
8 1956_8 6.768e-05
9 1956_9 0.00023736
10 1956_10 2.04e-05
11 1956_11 8.784e-05
12 1956_12 5.76e-05
13 1956_13 6.72e-05
14 1956_14 0
15 1956_15 6.768e-05
*RES
1 *1957:Y 1956_1 1.4
2 1956_1 1956_2 0
3 1956_2 *1958:B 0
4 1956_1 1956_3 0.746667
5 1956_3 1956_4 0.466667
6 1956_4 *1959:B 0
7 1956_3 1956_5 6.06667
8 1956_5 1956_6 0.233333
9 1956_6 *1960:B 0
10 1956_6 1956_7 0.933333
11 1956_7 1956_8 1.21333
12 1956_8 *1961:B 0
13 1956_7 1956_9 3.59333
14 1956_9 1956_10 0.233333
15 1956_10 *1962:B 0
16 1956_10 1956_11 1.77333
17 1956_11 1956_12 0.373333
18 1956_12 *1963:B 0
19 1956_11 1956_13 1.86667
20 1956_13 1956_14 0
21 1956_14 *1964:B 0
22 1956_13 1956_15 1.21333
23 1956_15 *1965:B 0
*END
*D_NET *1966 0.00219648
*CONN
*I *1967:Y O *D BUFX2
*I *1968:B I *L 0
*I *1969:B I *L 0
*I *1970:B I *L 0
*I *1971:B I *L 0
*I *1972:B I *L 0
*I *1973:B I *L 0
*I *1974:B I *L 0
*I *1975:B I *L 0
*CAP
1 1966_1 0.00014784
2 1966_2 6.12e-05
3 1966_3 6.72e-05
4 1966_4 8.16e-05
5 1966_5 2.688e-05
6 1966_6 0.00020256
7 1966_7 0.000102
8 1966_8 2.688e-05
9 1966_9 0.0001224
10 1966_10 5.376e-05
11 1966_11 0.000102
12 1966_12 0.00014928
13 1966_13 0.00082848
14 1966_14 0
15 1966_15 0.0002244
*RES
1 *1967:Y 1966_1 4.10667
2 1966_1 1966_2 0.7
3 1966_2 *1968:B 0
4 1966_1 1966_3 1.86667
5 1966_3 1966_4 0.933333
6 1966_4 *1969:B 0
7 1966_3 1966_5 0.746667
8 1966_5 1966_6 1.82667
9 1966_6 1966_7 1.16667
10 1966_7 *1970:B 0
11 1966_6 1966_8 0.746667
12 1966_8 1966_9 1.4
13 1966_9 *1971:B 0
14 1966_8 1966_10 1.49333
15 1966_10 1966_11 1.16667
16 1966_11 *1972:B 0
17 1966_10 1966_12 2.14667
18 1966_12 *1973:B 0
19 1966_5 1966_13 11.2133
20 1966_13 1966_14 0
21 1966_14 *1974:B 0
22 1966_14 1966_15 2.56667
23 1966_15 *1975:B 0
*END
*D_NET *1976 0.00156264
*CONN
*I *1977:Y O *D BUFX2
*I *1978:B I *L 0
*I *1979:B I *L 0
*I *1980:B I *L 0
*I *1981:B I *L 0
*I *1982:B I *L 0
*I *1983:B I *L 0
*I *1984:B I *L 0
*I *1985:B I *L 0
*CAP
1 1976_1 4.92e-05
2 1976_2 6.048e-05
3 1976_3 0
4 1976_4 6.768e-05
5 1976_5 0.00011424
6 1976_6 0.0002244
7 1976_7 2.04e-05
8 1976_8 6.768e-05
9 1976_9 0.00024864
10 1976_10 4.08e-05
11 1976_11 2.688e-05
12 1976_12 0
13 1976_13 0.00047256
14 1976_14 8.16e-05
15 1976_15 8.808e-05
*RES
1 *1977:Y 1976_1 0.7
2 1976_1 1976_2 1.68
3 1976_2 1976_3 0
4 1976_3 *1978:B 0
5 1976_2 1976_4 1.21333
6 1976_4 *1979:B 0
7 1976_1 1976_5 3.17333
8 1976_5 1976_6 2.56667
9 1976_6 1976_7 0.233333
10 1976_7 *1980:B 0
11 1976_7 1976_8 1.21333
12 1976_8 *1981:B 0
13 1976_5 1976_9 6.90667
14 1976_9 1976_10 0.466667
15 1976_10 *1982:B 0
16 1976_9 1976_11 0.746667
17 1976_11 1976_12 0
18 1976_12 *1983:B 0
19 1976_12 1976_13 10.1267
20 1976_13 1976_14 0.933333
21 1976_14 *1984:B 0
22 1976_13 1976_15 1.44667
23 1976_15 *1985:B 0
*END
*D_NET *1986 0.00250872
*CONN
*I *1987:Y O *D BUFX2
*I *1988:B I *L 0
*I *1989:B I *L 0
*I *1990:B I *L 0
*I *1991:B I *L 0
*I *1992:B I *L 0
*I *1993:B I *L 0
*I *1994:B I *L 0
*I *1995:B I *L 0
*CAP
1 1986_1 0.00073608
2 1986_2 0.000102
3 1986_3 2.688e-05
4 1986_4 8.16e-05
5 1986_5 8.064e-05
6 1986_6 8.16e-05
7 1986_7 4.728e-05
8 1986_8 0.000102
9 1986_9 0.00035736
10 1986_10 6.72e-05
11 1986_11 6.12e-05
12 1986_12 0.000432
13 1986_13 4.08e-05
14 1986_14 2.688e-05
15 1986_15 0.0002652
*RES
1 *1987:Y 1986_1 15.4467
2 1986_1 1986_2 1.16667
3 1986_2 *1988:B 0
4 1986_1 1986_3 0.746667
5 1986_3 1986_4 0.933333
6 1986_4 *1989:B 0
7 1986_3 1986_5 2.24
8 1986_5 1986_6 0.933333
9 1986_6 *1990:B 0
10 1986_5 1986_7 0.98
11 1986_7 1986_8 1.16667
12 1986_8 *1991:B 0
13 1986_7 1986_9 8.26
14 1986_9 1986_10 1.86667
15 1986_10 1986_11 0.7
16 1986_11 *1992:B 0
17 1986_10 1986_12 9.33333
18 1986_12 1986_13 0.466667
19 1986_13 *1993:B 0
20 1986_12 1986_14 0.746667
21 1986_14 *1994:B 0
22 1986_9 1986_15 3.03333
23 1986_15 *1995:B 0
*END
*D_NET *1996 0.00348888
*CONN
*I *1997:Y O *D BUFX2
*I *1998:B I *L 0
*I *1999:B I *L 0
*I *2000:B I *L 0
*I *2001:B I *L 0
*I *2002:B I *L 0
*I *2003:B I *L 0
*I *2004:B I *L 0
*I *2005:B I *L 0
*CAP
1 1996_1 0.00035256
2 1996_2 0.00020832
3 1996_3 4.032e-05
4 1996_4 0
5 1996_5 6.768e-05
6 1996_6 0.00062304
7 1996_7 0
8 1996_8 8.112e-05
9 1996_9 0.00166152
10 1996_10 4.08e-05
11 1996_11 4.704e-05
12 1996_12 4.08e-05
13 1996_13 2.688e-05
14 1996_14 6.12e-05
15 1996_15 0.0002376
*RES
1 *1997:Y 1996_1 3.92667
2 1996_1 1996_2 5.78667
3 1996_2 1996_3 1.12
4 1996_3 1996_4 0
5 1996_4 *1998:B 0
6 1996_3 1996_5 1.21333
7 1996_5 *1999:B 0
8 1996_2 1996_6 5.30667
9 1996_6 1996_7 0
10 1996_7 *2000:B 0
11 1996_6 1996_8 1.58667
12 1996_8 *2001:B 0
13 1996_1 1996_9 23.2867
14 1996_9 1996_10 0.466667
15 1996_10 *2002:B 0
16 1996_9 1996_11 1.30667
17 1996_11 1996_12 0.466667
18 1996_12 *2003:B 0
19 1996_11 1996_13 0.746667
20 1996_13 1996_14 0.7
21 1996_14 *2004:B 0
22 1996_13 1996_15 3.26667
23 1996_15 *2005:B 0
*END
*D_NET *2006 0.00208632
*CONN
*I *2007:Y O *D _1866
*I *2008:B I *L 0
*I *2009:B I *L 0
*I *2010:B I *L 0
*I *2011:A I *L 0
*I *2012:B I *L 0
*I *2013:B I *L 0
*I *2014:A I *L 0
*I *2015:B I *L 0
*CAP
1 2006_1 0.00038136
2 2006_2 0.00014184
3 2006_3 2.04e-05
4 2006_4 0.00012096
5 2006_5 0.0004284
6 2006_6 9.384e-05
7 2006_7 4.704e-05
8 2006_8 4.08e-05
9 2006_9 0.00035088
10 2006_10 0.00010176
11 2006_11 0.0001836
12 2006_12 2.04e-05
13 2006_13 8.736e-05
14 2006_14 4.08e-05
15 2006_15 2.688e-05
*RES
1 *2007:Y 2006_1 7.7
2 2006_1 2006_2 2.94
3 2006_2 2006_3 0.233333
4 2006_3 *2008:B 0
5 2006_3 2006_4 3.36
6 2006_4 *2009:B 0
7 2006_1 2006_5 4.9
8 2006_5 2006_6 1.07333
9 2006_6 *2010:B 0
10 2006_5 2006_7 1.30667
11 2006_7 2006_8 0.466667
12 2006_8 *2011:A 0
13 2006_7 2006_9 7.74667
14 2006_9 2006_10 1.49333
15 2006_10 *2012:B 0
16 2006_9 2006_11 2.1
17 2006_11 2006_12 0.233333
18 2006_12 *2013:B 0
19 2006_12 2006_13 2.42667
20 2006_13 2006_14 0.466667
21 2006_14 *2014:A 0
22 2006_13 2006_15 0.746667
23 2006_15 *2015:B 0
*END
*D_NET *2016 0.00414432
*CONN
*I *2017:Y O *D _1997
*I *2018:A I *L 0
*I *2019:A I *L 0
*I *2020:A I *L 0
*I *2021:A I *L 0
*I *2022:B I *L 0
*I *2023:A I *L 0
*I *2024:A I *L 0
*I *2025:A I *L 0
*CAP
1 2016_1 0.000372
2 2016_2 2.04e-05
3 2016_3 0.0001716
4 2016_4 4.704e-05
5 2016_5 0
6 2016_6 0.00061848
7 2016_7 2.688e-05
8 2016_8 0.00084216
9 2016_9 0.000102
10 2016_10 0.00011424
11 2016_11 0.00068472
12 2016_12 0.00069792
13 2016_13 0
14 2016_14 2.688e-05
15 2016_15 0.00042
*RES
1 *2017:Y 2016_1 7
2 2016_1 2016_2 0.233333
3 2016_2 *2018:A 0
4 2016_2 2016_3 2.1
5 2016_3 2016_4 1.30667
6 2016_4 2016_5 0
7 2016_5 *2019:A 0
8 2016_5 2016_6 9.84667
9 2016_6 2016_7 0.746667
10 2016_7 *2020:A 0
11 2016_6 2016_8 11.06
12 2016_8 2016_9 1.16667
13 2016_9 *2021:A 0
14 2016_8 2016_10 3.17333
15 2016_10 2016_11 10.6867
16 2016_11 *2022:B 0
17 2016_10 2016_12 6.38667
18 2016_12 2016_13 0
19 2016_13 *2023:A 0
20 2016_12 2016_14 0.746667
21 2016_14 *2024:A 0
22 2016_3 2016_15 7
23 2016_15 *2025:A 0
*END
*D_NET *2026 0.00822552
*CONN
*P *2026 O
*I *2027:A I *L 0
*I *2028:A I *L 0
*I *2029:A I *L 0
*I *2030:A I *L 0
*I *2031:A I *L 0
*I *2032:A I *L 0
*I *2033:A I *L 0
*CAP
1 2026_1 8.16e-05
2 2026_2 0.00018288
3 2026_3 2.04e-05
4 2026_4 0.0015408
5 2026_5 2.04e-05
6 2026_6 0.00252552
7 2026_7 0.00133296
8 2026_8 0.000102
9 2026_9 2.04e-05
10 2026_10 0.00024408
11 2026_11 0.0009432
12 2026_12 2.04e-05
13 2026_13 0.00119088
*RES
1 *2026 2026_1 0.933333
2 2026_1 2026_2 3.08
3 2026_2 2026_3 0.233333
4 2026_3 *2027:A 0
5 2026_3 2026_4 33.1333
6 2026_4 2026_5 0.233333
7 2026_5 *2028:A 0
8 2026_5 2026_6 25.1533
9 2026_6 2026_7 33.6933
10 2026_7 2026_8 1.16667
11 2026_8 2026_9 0.233333
12 2026_9 *2029:A 0
13 2026_9 2026_10 3.78
14 2026_10 *2030:A 0
15 2026_7 2026_11 22.8667
16 2026_11 *2031:A 0
17 2026_6 2026_12 0.233333
18 2026_12 *2032:A 0
19 2026_1 2026_13 31.08
20 2026_13 *2033:A 0
*END
*D_NET *2034 0.00322608
*CONN
*I *2035:Y O *D CLKBUF1
*I *2036:A I *L 0
*I *2037:A I *L 0
*I *2038:A I *L 0
*I *2039:A I *L 0
*I *2040:A I *L 0
*I *2041:A I *L 0
*I *2042:A I *L 0
*CAP
1 2034_1 6.96e-05
2 2034_2 0.00031248
3 2034_3 0.00028992
4 2034_4 0.0002448
5 2034_5 0.00045696
6 2034_6 2.04e-05
7 2034_7 0.0002448
8 2034_8 0.00071904
9 2034_9 0.0002844
10 2034_10 4.08e-05
11 2034_11 5.376e-05
12 2034_12 4.08e-05
13 2034_13 0.00044832
*RES
1 *2035:Y 2034_1 0.933333
2 2034_1 2034_2 4.01333
3 2034_2 *2036:A 0
4 2034_1 2034_3 6.72
5 2034_3 2034_4 2.8
6 2034_4 *2037:A 0
7 2034_3 2034_5 12.6933
8 2034_5 2034_6 0.233333
9 2034_6 2034_7 2.8
10 2034_7 *2038:A 0
11 2034_6 2034_8 8.77333
12 2034_8 *2039:A 0
13 2034_5 2034_9 4.9
14 2034_9 2034_10 0.466667
15 2034_10 *2040:A 0
16 2034_9 2034_11 1.49333
17 2034_11 2034_12 0.466667
18 2034_12 *2041:A 0
19 2034_11 2034_13 5.78667
20 2034_13 *2042:A 0
*END
*D_NET *2043 0.00388656
*CONN
*I *2044:Y O *D CLKBUF1
*I *2045:A I *L 0
*I *2046:A I *L 0
*I *2047:A I *L 0
*I *2048:A I *L 0
*I *2049:A I *L 0
*I *2050:A I *L 0
*I *2051:A I *L 0
*CAP
1 2043_1 0.00090984
2 2043_2 0.0003312
3 2043_3 4.08e-05
4 2043_4 0.00029112
5 2043_5 3.264e-05
6 2043_6 0.0010248
7 2043_7 5.76e-05
8 2043_8 0.00062496
9 2043_9 2.688e-05
10 2043_10 5.76e-05
11 2043_11 0.00048912
*RES
1 *2044:Y 2043_1 10.4067
2 2043_1 2043_2 6.53333
3 2043_2 2043_3 0.466667
4 2043_3 *2045:A 0
5 2043_2 2043_4 5.08667
6 2043_4 *2046:A 0
7 2043_1 2043_5 0.373333
8 2043_5 *2047:A 0
9 2043_1 2043_6 14.4667
10 2043_6 2043_7 0.373333
11 2043_7 *2048:A 0
12 2043_6 2043_8 8.02667
13 2043_8 2043_9 0.746667
14 2043_9 *2049:A 0
15 2043_9 2043_10 0.373333
16 2043_10 *2050:A 0
17 2043_8 2043_11 6.25333
18 2043_11 *2051:A 0
*END
*D_NET *2052 0.00314136
*CONN
*I *2053:Y O *D CLKBUF1
*I *2054:A I *L 0
*I *2055:A I *L 0
*I *2056:A I *L 0
*I *2057:A I *L 0
*I *2058:A I *L 0
*I *2059:A I *L 0
*I *2060:A I *L 0
*CAP
1 2052_1 0.0001104
2 2052_2 0.0004824
3 2052_3 3.36e-05
4 2052_4 0.00053616
5 2052_5 0.00047736
6 2052_6 4.08e-05
7 2052_7 0.00033072
8 2052_8 0.000306
9 2052_9 4.704e-05
10 2052_10 0.00010752
11 2052_11 4.08e-05
12 2052_12 9.456e-05
13 2052_13 0.000534
*RES
1 *2053:Y 2052_1 1.4
2 2052_1 2052_2 6.06667
3 2052_2 2052_3 0.933333
4 2052_3 *2054:A 0
5 2052_2 2052_4 7.56
6 2052_4 *2055:A 0
7 2052_1 2052_5 12.9267
8 2052_5 2052_6 0.466667
9 2052_6 *2056:A 0
10 2052_5 2052_7 7.18667
11 2052_7 2052_8 3.5
12 2052_8 *2057:A 0
13 2052_7 2052_9 1.30667
14 2052_9 2052_10 2.98667
15 2052_10 2052_11 0.466667
16 2052_11 *2058:A 0
17 2052_10 2052_12 1.96
18 2052_12 *2059:A 0
19 2052_9 2052_13 4.9
20 2052_13 *2060:A 0
*END
*D_NET *2061 0.00948048
*CONN
*P *2061 O
*I *2062:A I *L 0
*I *2063:A I *L 0
*I *2064:A I *L 0
*I *2065:A I *L 0
*I *2066:A I *L 0
*I *2067:A I *L 0
*I *2068:A I *L 0
*CAP
1 2061_1 0.0005712
2 2061_2 2.04e-05
3 2061_3 0.00177072
4 2061_4 0.00024936
5 2061_5 0.0011328
6 2061_6 2.04e-05
7 2061_7 0.00172344
8 2061_8 0.0005412
9 2061_9 0.000102
10 2061_10 0.00084096
11 2061_11 0.0001968
12 2061_12 0.00163992
13 2061_13 0.00067128
*RES
1 *2061 2061_1 6.53333
2 2061_1 2061_2 0.233333
3 2061_2 *2062:A 0
4 2061_2 2061_3 36.1867
5 2061_3 2061_4 5.92667
6 2061_4 *2063:A 0
7 2061_3 2061_5 15.4
8 2061_5 2061_6 0.233333
9 2061_6 *2064:A 0
10 2061_6 2061_7 16.8067
11 2061_7 2061_8 14.7
12 2061_8 2061_9 1.16667
13 2061_9 *2065:A 0
14 2061_8 2061_10 22.0267
15 2061_10 2061_11 2.8
16 2061_11 *2066:A 0
17 2061_10 2061_12 18.02
18 2061_12 *2067:A 0
19 2061_7 2061_13 17.0467
20 2061_13 *2068:A 0
*END
*D_NET *2069 0.00281304
*CONN
*I *2070:Y O *D BUFX2
*I *2071:A I *L 0
*I *2072:A I *L 0
*I *2073:A I *L 0
*I *2074:A I *L 0
*I *2075:A I *L 0
*I *2076:A I *L 0
*I *2077:A I *L 0
*CAP
1 2069_1 0.00016944
2 2069_2 6.12e-05
3 2069_3 6.72e-05
4 2069_4 0.0001188
5 2069_5 0.00032376
6 2069_6 0.000306
7 2069_7 5.76e-05
8 2069_8 0.00086136
9 2069_9 2.04e-05
10 2069_10 0.000204
11 2069_11 2.04e-05
12 2069_12 0.00031896
13 2069_13 0.00028392
*RES
1 *2070:Y 2069_1 2.70667
2 2069_1 2069_2 0.7
3 2069_2 *2071:A 0
4 2069_1 2069_3 1.86667
5 2069_3 2069_4 1.07333
6 2069_4 *2072:A 0
7 2069_3 2069_5 7.32667
8 2069_5 2069_6 3.5
9 2069_6 2069_7 0.373333
10 2069_7 *2073:A 0
11 2069_6 2069_8 12.9267
12 2069_8 2069_9 0.233333
13 2069_9 *2074:A 0
14 2069_9 2069_10 2.33333
15 2069_10 2069_11 0.233333
16 2069_11 *2075:A 0
17 2069_11 2069_12 4.52667
18 2069_12 *2076:A 0
19 2069_5 2069_13 5.55333
20 2069_13 *2077:A 0
*END
*D_NET *2078 0.0023784
*CONN
*I *2079:Y O *D BUFX2
*I *2080:A I *L 0
*I *2081:A I *L 0
*I *2082:A I *L 0
*I *2083:A I *L 0
*I *2084:A I *L 0
*I *2085:A I *L 0
*I *2086:A I *L 0
*CAP
1 2078_1 2.04e-05
2 2078_2 7.344e-05
3 2078_3 0.00034488
4 2078_4 0.00014784
5 2078_5 2.688e-05
6 2078_6 0.000204
7 2078_7 0.0004488
8 2078_8 3.264e-05
9 2078_9 0.0001428
10 2078_10 0.00022992
11 2078_11 0.00044064
12 2078_12 2.04e-05
13 2078_13 0.00024576
*RES
1 *2079:Y 2078_1 0.233333
2 2078_1 2078_2 0.84
3 2078_2 *2080:A 0
4 2078_1 2078_3 6.58
5 2078_3 2078_4 4.10667
6 2078_4 2078_5 0.746667
7 2078_5 *2081:A 0
8 2078_4 2078_6 2.33333
9 2078_6 *2082:A 0
10 2078_3 2078_7 5.13333
11 2078_7 2078_8 0.373333
12 2078_8 *2083:A 0
13 2078_7 2078_9 1.63333
14 2078_9 2078_10 4.38667
15 2078_10 *2084:A 0
16 2078_9 2078_11 6.90667
17 2078_11 2078_12 0.233333
18 2078_12 *2085:A 0
19 2078_12 2078_13 6.16
20 2078_13 *2086:A 0
*END
*D_NET *2087 0.00244224
*CONN
*I *2088:Y O *D BUFX2
*I *2089:A I *L 0
*I *2090:A I *L 0
*I *2091:A I *L 0
*I *2092:A I *L 0
*I *2093:A I *L 0
*I *2094:A I *L 0
*I *2095:A I *L 0
*CAP
1 2087_1 4.92e-05
2 2087_2 8.736e-05
3 2087_3 0.00027456
4 2087_4 0.00014976
5 2087_5 0
6 2087_6 8.064e-05
7 2087_7 0.00043728
8 2087_8 4.08e-05
9 2087_9 0.00034968
10 2087_10 0.0002244
11 2087_11 0.00065736
12 2087_12 5.76e-05
13 2087_13 3.36e-05
*RES
1 *2088:Y 2087_1 0.7
2 2087_1 2087_2 2.42667
3 2087_2 *2089:A 0
4 2087_1 2087_3 3.02667
5 2087_3 2087_4 2.16
6 2087_4 2087_5 0
7 2087_5 *2090:A 0
8 2087_4 2087_6 2.24
9 2087_6 *2091:A 0
10 2087_3 2087_7 11.48
11 2087_7 2087_8 0.466667
12 2087_8 *2092:A 0
13 2087_7 2087_9 9.38
14 2087_9 2087_10 2.56667
15 2087_10 *2093:A 0
16 2087_9 2087_11 10.5933
17 2087_11 2087_12 0.373333
18 2087_12 *2094:A 0
19 2087_11 2087_13 0.933333
20 2087_13 *2095:A 0
*END
*D_NET *2096 0.00271152
*CONN
*I *2097:Y O *D CLKBUF1
*I *2098:CLK I *L 0
*I *2099:CLK I *L 0
*I *2100:CLK I *L 0
*I *2101:CLK I *L 0
*I *2102:CLK I *L 0
*I *2103:CLK I *L 0
*I *2104:CLK I *L 0
*CAP
1 2096_1 0.0002304
2 2096_2 2.04e-05
3 2096_3 0.00036696
4 2096_4 0.0001224
5 2096_5 5.376e-05
6 2096_6 0
7 2096_7 0.0007428
8 2096_8 5.376e-05
9 2096_9 0.00056952
10 2096_10 2.04e-05
11 2096_11 0.0001308
12 2096_12 5.376e-05
13 2096_13 0.00034656
*RES
1 *2097:Y 2096_1 3.73333
2 2096_1 2096_2 0.233333
3 2096_2 *2098:CLK 0
4 2096_2 2096_3 4.52667
5 2096_3 2096_4 1.4
6 2096_4 *2099:CLK 0
7 2096_3 2096_5 1.49333
8 2096_5 2096_6 0
9 2096_6 *2100:CLK 0
10 2096_6 2096_7 8.63333
11 2096_7 2096_8 1.49333
12 2096_8 *2101:CLK 0
13 2096_7 2096_9 8.82
14 2096_9 2096_10 0.233333
15 2096_10 *2102:CLK 0
16 2096_10 2096_11 1.63333
17 2096_11 2096_12 1.49333
18 2096_12 *2103:CLK 0
19 2096_11 2096_13 4.29333
20 2096_13 *2104:CLK 0
*END
*D_NET *2105 0.00237672
*CONN
*I *2106:Y O *D CLKBUF1
*I *2107:CLK I *L 0
*I *2108:CLK I *L 0
*I *2109:CLK I *L 0
*I *2110:CLK I *L 0
*I *2111:CLK I *L 0
*I *2112:CLK I *L 0
*I *2113:CLK I *L 0
*CAP
1 2105_1 0.00012816
2 2105_2 2.04e-05
3 2105_3 0.00018312
4 2105_4 2.04e-05
5 2105_5 0.0001224
6 2105_6 0.0001512
7 2105_7 0.00028392
8 2105_8 0.00025536
9 2105_9 0.000102
10 2105_10 4.032e-05
11 2105_11 0.000204
12 2105_12 0.0002364
13 2105_13 0.00062904
*RES
1 *2106:Y 2105_1 2.89333
2 2105_1 2105_2 0.233333
3 2105_2 *2107:CLK 0
4 2105_2 2105_3 2.75333
5 2105_3 2105_4 0.233333
6 2105_4 *2108:CLK 0
7 2105_4 2105_5 1.4
8 2105_5 2105_6 1.86667
9 2105_6 2105_7 3.68667
10 2105_7 *2109:CLK 0
11 2105_6 2105_8 7.09333
12 2105_8 2105_9 1.16667
13 2105_9 *2110:CLK 0
14 2105_8 2105_10 1.12
15 2105_10 2105_11 2.33333
16 2105_11 *2111:CLK 0
17 2105_10 2105_12 4.9
18 2105_12 *2112:CLK 0
19 2105_5 2105_13 11.8067
20 2105_13 *2113:CLK 0
*END
*D_NET *2114 0.0019476
*CONN
*I *2115:Y O *D CLKBUF1
*I *2116:CLK I *L 0
*I *2117:CLK I *L 0
*I *2118:CLK I *L 0
*I *2119:CLK I *L 0
*I *2120:CLK I *L 0
*I *2121:CLK I *L 0
*I *2122:CLK I *L 0
*CAP
1 2114_1 6.96e-05
2 2114_2 8.808e-05
3 2114_3 0.00011448
4 2114_4 8.16e-05
5 2114_5 0.00042024
6 2114_6 2.04e-05
7 2114_7 0.00048216
8 2114_8 0
9 2114_9 0.00015456
10 2114_10 0
11 2114_11 0.00037368
12 2114_12 2.04e-05
13 2114_13 0.0001224
*RES
1 *2115:Y 2114_1 0.933333
2 2114_1 2114_2 1.44667
3 2114_2 *2116:CLK 0
4 2114_1 2114_3 2.84667
5 2114_3 2114_4 0.933333
6 2114_4 *2117:CLK 0
7 2114_3 2114_5 4.80667
8 2114_5 2114_6 0.233333
9 2114_6 *2118:CLK 0
10 2114_6 2114_7 6.39333
11 2114_7 2114_8 0
12 2114_8 *2119:CLK 0
13 2114_7 2114_9 4.29333
14 2114_9 2114_10 0
15 2114_10 *2120:CLK 0
16 2114_10 2114_11 4.71333
17 2114_11 2114_12 0.233333
18 2114_12 *2121:CLK 0
19 2114_12 2114_13 1.4
20 2114_13 *2122:CLK 0
*END
*D_NET *2123 0.00134256
*CONN
*I *2124:Y O *D CLKBUF1
*I *2125:CLK I *L 0
*I *2126:CLK I *L 0
*I *2127:CLK I *L 0
*I *2128:CLK I *L 0
*I *2129:CLK I *L 0
*I *2130:CLK I *L 0
*I *2131:CLK I *L 0
*CAP
1 2123_1 6.96e-05
2 2123_2 0.00010152
3 2123_3 8.736e-05
4 2123_4 8.16e-05
5 2123_5 3.36e-05
6 2123_6 6.12e-05
7 2123_7 0.0001176
8 2123_8 9.408e-05
9 2123_9 6.12e-05
10 2123_10 0.0001344
11 2123_11 8.16e-05
12 2123_12 0.00011496
13 2123_13 0.00030384
*RES
1 *2124:Y 2123_1 0.933333
2 2123_1 2123_2 1.82
3 2123_2 *2125:CLK 0
4 2123_1 2123_3 2.42667
5 2123_3 2123_4 0.933333
6 2123_4 *2126:CLK 0
7 2123_3 2123_5 0.933333
8 2123_5 2123_6 0.7
9 2123_6 *2127:CLK 0
10 2123_5 2123_7 3.26667
11 2123_7 2123_8 2.61333
12 2123_8 2123_9 0.7
13 2123_9 *2128:CLK 0
14 2123_8 2123_10 3.73333
15 2123_10 2123_11 0.933333
16 2123_11 *2129:CLK 0
17 2123_10 2123_12 2.19333
18 2123_12 *2130:CLK 0
19 2123_7 2123_13 3.30667
20 2123_13 *2131:CLK 0
*END
*D_NET *2132 0.00207912
*CONN
*I *2133:Y O *D CLKBUF1
*I *2134:CLK I *L 0
*I *2135:CLK I *L 0
*I *2136:CLK I *L 0
*I *2137:CLK I *L 0
*I *2138:CLK I *L 0
*I *2139:CLK I *L 0
*I *2140:CLK I *L 0
*CAP
1 2132_1 7.44e-05
2 2132_2 2.04e-05
3 2132_3 8.16e-05
4 2132_4 6.12e-05
5 2132_5 0.0004284
6 2132_6 0.00014112
7 2132_7 0
8 2132_8 0.00055632
9 2132_9 0.00024384
10 2132_10 0
11 2132_11 0.00016128
12 2132_12 0
13 2132_13 0.00031056
*RES
1 *2133:Y 2132_1 1.4
2 2132_1 2132_2 0.233333
3 2132_2 2132_3 0.933333
4 2132_3 *2134:CLK 0
5 2132_2 2132_4 0.7
6 2132_4 2132_5 4.9
7 2132_5 *2135:CLK 0
8 2132_4 2132_6 3.92
9 2132_6 2132_7 0
10 2132_7 *2136:CLK 0
11 2132_7 2132_8 8.12
12 2132_8 *2137:CLK 0
13 2132_1 2132_9 1.97333
14 2132_9 2132_10 0
15 2132_10 *2138:CLK 0
16 2132_9 2132_11 4.48
17 2132_11 2132_12 0
18 2132_12 *2139:CLK 0
19 2132_12 2132_13 6.62667
20 2132_13 *2140:CLK 0
*END
*D_NET *2141 0.00225936
*CONN
*I *2142:Y O *D CLKBUF1
*I *2143:CLK I *L 0
*I *2144:CLK I *L 0
*I *2145:CLK I *L 0
*I *2146:CLK I *L 0
*I *2147:CLK I *L 0
*I *2148:CLK I *L 0
*I *2149:CLK I *L 0
*CAP
1 2141_1 0.0001104
2 2141_2 4.032e-05
3 2141_3 0
4 2141_4 0.00078744
5 2141_5 0.00030384
6 2141_6 0
7 2141_7 0.00016944
8 2141_8 2.04e-05
9 2141_9 0.00030576
10 2141_10 6.12e-05
11 2141_11 2.04e-05
12 2141_12 0.00021648
13 2141_13 0.00022368
*RES
1 *2142:Y 2141_1 1.4
2 2141_1 2141_2 1.12
3 2141_2 2141_3 0
4 2141_3 *2143:CLK 0
5 2141_3 2141_4 9.00667
6 2141_4 *2144:CLK 0
7 2141_1 2141_5 6.44
8 2141_5 2141_6 0
9 2141_6 *2145:CLK 0
10 2141_5 2141_7 2.70667
11 2141_7 2141_8 0.233333
12 2141_8 *2146:CLK 0
13 2141_8 2141_9 3.82667
14 2141_9 2141_10 0.7
15 2141_10 2141_11 0.233333
16 2141_11 *2147:CLK 0
17 2141_11 2141_12 4.01333
18 2141_12 *2148:CLK 0
19 2141_9 2141_13 3.54667
20 2141_13 *2149:CLK 0
*END
*D_NET *2150 0.00197808
*CONN
*I *2151:Y O *D CLKBUF1
*I *2152:CLK I *L 0
*I *2153:CLK I *L 0
*I *2154:CLK I *L 0
*I *2155:CLK I *L 0
*I *2156:CLK I *L 0
*I *2157:CLK I *L 0
*I *2158:CLK I *L 0
*CAP
1 2150_1 0.0001512
2 2150_2 0.00012096
3 2150_3 7.392e-05
4 2150_4 0.00015456
5 2150_5 0
6 2150_6 0.00029064
7 2150_7 0.00028464
8 2150_8 2.04e-05
9 2150_9 0.0004284
10 2150_10 5.376e-05
11 2150_11 0.0002568
12 2150_12 4.08e-05
13 2150_13 0.000102
*RES
1 *2151:Y 2150_1 1.86667
2 2150_1 2150_2 3.36
3 2150_2 *2152:CLK 0
4 2150_1 2150_3 2.05333
5 2150_3 2150_4 4.29333
6 2150_4 2150_5 0
7 2150_5 *2153:CLK 0
8 2150_4 2150_6 3.27333
9 2150_6 *2154:CLK 0
10 2150_3 2150_7 3.17333
11 2150_7 2150_8 0.233333
12 2150_8 *2155:CLK 0
13 2150_8 2150_9 4.9
14 2150_9 2150_10 1.49333
15 2150_10 *2156:CLK 0
16 2150_9 2150_11 5.13333
17 2150_11 2150_12 0.466667
18 2150_12 *2157:CLK 0
19 2150_11 2150_13 1.16667
20 2150_13 *2158:CLK 0
*END
*D_NET *2159 0.00235368
*CONN
*I *2160:Y O *D CLKBUF1
*I *2161:CLK I *L 0
*I *2162:CLK I *L 0
*I *2163:CLK I *L 0
*I *2164:CLK I *L 0
*I *2165:CLK I *L 0
*I *2166:CLK I *L 0
*I *2167:CLK I *L 0
*CAP
1 2159_1 4.92e-05
2 2159_2 0.00011424
3 2159_3 0
4 2159_4 0.0001896
5 2159_5 2.04e-05
6 2159_6 0.00037944
7 2159_7 2.04e-05
8 2159_8 0.00017544
9 2159_9 2.04e-05
10 2159_10 0.00037944
11 2159_11 0.000462
12 2159_12 2.04e-05
13 2159_13 0.00052272
*RES
1 *2160:Y 2159_1 0.7
2 2159_1 2159_2 3.17333
3 2159_2 2159_3 0
4 2159_3 *2161:CLK 0
5 2159_2 2159_4 3.26667
6 2159_4 2159_5 0.233333
7 2159_5 *2162:CLK 0
8 2159_5 2159_6 4.34
9 2159_6 2159_7 0.233333
10 2159_7 *2163:CLK 0
11 2159_7 2159_8 2.00667
12 2159_8 2159_9 0.233333
13 2159_9 *2164:CLK 0
14 2159_9 2159_10 4.34
15 2159_10 *2165:CLK 0
16 2159_1 2159_11 5.83333
17 2159_11 2159_12 0.233333
18 2159_12 *2166:CLK 0
19 2159_12 2159_13 7.18667
20 2159_13 *2167:CLK 0
*END
*D_NET *2168 0.00204456
*CONN
*I *2169:Y O *D CLKBUF1
*I *2170:CLK I *L 0
*I *2171:CLK I *L 0
*I *2172:CLK I *L 0
*I *2173:CLK I *L 0
*I *2174:CLK I *L 0
*I *2175:CLK I *L 0
*I *2176:CLK I *L 0
*CAP
1 2168_1 0.0002532
2 2168_2 0.00044808
3 2168_3 0.00016128
4 2168_4 8.16e-05
5 2168_5 2.04e-05
6 2168_6 0.00037944
7 2168_7 2.04e-05
8 2168_8 0.0001308
9 2168_9 8.736e-05
10 2168_10 0.00012096
11 2168_11 9.072e-05
12 2168_12 4.08e-05
13 2168_13 0.00020952
*RES
1 *2169:Y 2168_1 3.03333
2 2168_1 2168_2 6.11333
3 2168_2 *2170:CLK 0
4 2168_1 2168_3 4.48
5 2168_3 2168_4 0.933333
6 2168_4 2168_5 0.233333
7 2168_5 *2171:CLK 0
8 2168_5 2168_6 4.34
9 2168_6 2168_7 0.233333
10 2168_7 *2172:CLK 0
11 2168_7 2168_8 1.63333
12 2168_8 2168_9 2.42667
13 2168_9 *2173:CLK 0
14 2168_8 2168_10 3.36
15 2168_10 *2174:CLK 0
16 2168_3 2168_11 2.52
17 2168_11 2168_12 0.466667
18 2168_12 *2175:CLK 0
19 2168_11 2168_13 4.15333
20 2168_13 *2176:CLK 0
*END
*D_NET *2177 0.00189216
*CONN
*I *2178:Y O *D CLKBUF1
*I *2179:CLK I *L 0
*I *2180:CLK I *L 0
*I *2181:CLK I *L 0
*I *2182:CLK I *L 0
*I *2183:CLK I *L 0
*I *2184:CLK I *L 0
*I *2185:CLK I *L 0
*CAP
1 2177_1 2.04e-05
2 2177_2 0.00012864
3 2177_3 4.08e-05
4 2177_4 0.00026424
5 2177_5 0.0002448
6 2177_6 2.04e-05
7 2177_7 0.00019656
8 2177_8 0.00017592
9 2177_9 0.0001548
10 2177_10 0.000102
11 2177_11 0.0003468
12 2177_12 2.04e-05
13 2177_13 0.0001764
*RES
1 *2178:Y 2177_1 0.233333
2 2177_1 2177_2 2.24
3 2177_2 2177_3 0.466667
4 2177_3 *2179:CLK 0
5 2177_2 2177_4 4.34
6 2177_4 2177_5 2.8
7 2177_5 2177_6 0.233333
8 2177_6 *2180:CLK 0
9 2177_6 2177_7 3.12667
10 2177_7 *2181:CLK 0
11 2177_4 2177_8 3.22
12 2177_8 *2182:CLK 0
13 2177_1 2177_9 3.96667
14 2177_9 2177_10 1.16667
15 2177_10 *2183:CLK 0
16 2177_9 2177_11 3.96667
17 2177_11 2177_12 0.233333
18 2177_12 *2184:CLK 0
19 2177_12 2177_13 2.56667
20 2177_13 *2185:CLK 0
*END
*D_NET *2186 0.00164112
*CONN
*I *2187:Y O *D CLKBUF1
*I *2188:CLK I *L 0
*I *2189:CLK I *L 0
*I *2190:CLK I *L 0
*I *2191:CLK I *L 0
*I *2192:CLK I *L 0
*I *2193:CLK I *L 0
*I *2194:CLK I *L 0
*CAP
1 2186_1 0.00012144
2 2186_2 0
3 2186_3 0.00014928
4 2186_4 5.376e-05
5 2186_5 0
6 2186_6 0.00015456
7 2186_7 8.4e-06
8 2186_8 0
9 2186_9 0.00037368
10 2186_10 0.00018288
11 2186_11 0.0003264
12 2186_12 2.04e-05
13 2186_13 0.00025032
*RES
1 *2187:Y 2186_1 2.70667
2 2186_1 2186_2 0
3 2186_2 *2188:CLK 0
4 2186_2 2186_3 2.14667
5 2186_3 2186_4 1.49333
6 2186_4 2186_5 0
7 2186_5 *2189:CLK 0
8 2186_4 2186_6 4.29333
9 2186_6 2186_7 0.233333
10 2186_7 2186_8 0
11 2186_8 *2190:CLK 0
12 2186_8 2186_9 4.71333
13 2186_9 *2191:CLK 0
14 2186_7 2186_10 3.08
15 2186_10 *2192:CLK 0
16 2186_3 2186_11 3.73333
17 2186_11 2186_12 0.233333
18 2186_12 *2193:CLK 0
19 2186_12 2186_13 4.62
20 2186_13 *2194:CLK 0
*END
*D_NET *2195 0.00169896
*CONN
*I *2196:Y O *D CLKBUF1
*I *2197:CLK I *L 0
*I *2198:CLK I *L 0
*I *2199:CLK I *L 0
*I *2200:CLK I *L 0
*I *2201:CLK I *L 0
*I *2202:CLK I *L 0
*I *2203:CLK I *L 0
*CAP
1 2195_1 0.0002244
2 2195_2 9.48e-05
3 2195_3 6.12e-05
4 2195_4 8.088e-05
5 2195_5 8.16e-05
6 2195_6 0.00021576
7 2195_7 0.00015504
8 2195_8 0.00012768
9 2195_9 4.08e-05
10 2195_10 0.00014112
11 2195_11 0.00012888
12 2195_12 0.0003468
*RES
1 *2196:Y 2195_1 2.56667
2 2195_1 2195_2 1.63333
3 2195_2 2195_3 0.7
4 2195_3 *2197:CLK 0
5 2195_2 2195_4 1.91333
6 2195_4 2195_5 0.933333
7 2195_5 *2198:CLK 0
8 2195_4 2195_6 4.99333
9 2195_6 *2199:CLK 0
10 2195_1 2195_7 1.77333
11 2195_7 *2200:CLK 0
12 2195_1 2195_8 3.54667
13 2195_8 2195_9 0.466667
14 2195_9 *2201:CLK 0
15 2195_8 2195_10 3.92
16 2195_10 2195_11 1.91333
17 2195_11 *2202:CLK 0
18 2195_10 2195_12 3.96667
19 2195_12 *2203:CLK 0
*END
*D_NET *2204 0.00186696
*CONN
*I *2205:Y O *D CLKBUF1
*I *2206:CLK I *L 0
*I *2207:CLK I *L 0
*I *2208:CLK I *L 0
*I *2209:CLK I *L 0
*I *2210:CLK I *L 0
*I *2211:CLK I *L 0
*I *2212:CLK I *L 0
*CAP
1 2204_1 0.00037896
2 2204_2 4.92e-05
3 2204_3 0.0001152
4 2204_4 0.00024264
5 2204_5 4.08e-05
6 2204_6 0.00025584
7 2204_7 2.04e-05
8 2204_8 0.00018144
9 2204_9 0
10 2204_10 0.0003264
11 2204_11 0.00017544
12 2204_12 8.064e-05
*RES
1 *2205:Y 2204_1 6.86
2 2204_1 2204_2 0.7
3 2204_2 2204_3 1.86667
4 2204_3 *2206:CLK 0
5 2204_2 2204_4 5.74
6 2204_4 2204_5 0.466667
7 2204_5 *2207:CLK 0
8 2204_4 2204_6 6.44
9 2204_6 *2208:CLK 0
10 2204_1 2204_7 0.233333
11 2204_7 *2209:CLK 0
12 2204_7 2204_8 5.04
13 2204_8 2204_9 0
14 2204_9 *2210:CLK 0
15 2204_9 2204_10 3.73333
16 2204_10 2204_11 2.00667
17 2204_11 *2211:CLK 0
18 2204_10 2204_12 2.24
19 2204_12 *2212:CLK 0
*END
*D_NET *2213 0.00204384
*CONN
*I *2214:Y O *D CLKBUF1
*I *2215:CLK I *L 0
*I *2216:CLK I *L 0
*I *2217:CLK I *L 0
*I *2218:CLK I *L 0
*I *2219:CLK I *L 0
*I *2220:CLK I *L 0
*I *2221:CLK I *L 0
*CAP
1 2213_1 0.00058296
2 2213_2 2.04e-05
3 2213_3 0.00019632
4 2213_4 0
5 2213_5 0.0001344
6 2213_6 0.0001224
7 2213_7 2.04e-05
8 2213_8 0.00037944
9 2213_9 2.04e-05
10 2213_10 0.00029832
11 2213_11 0.00010752
12 2213_12 0
13 2213_13 0.00016128
*RES
1 *2214:Y 2213_1 9.19333
2 2213_1 2213_2 0.233333
3 2213_2 *2215:CLK 0
4 2213_2 2213_3 3.45333
5 2213_3 2213_4 0
6 2213_4 *2216:CLK 0
7 2213_3 2213_5 3.73333
8 2213_5 2213_6 1.4
9 2213_6 2213_7 0.233333
10 2213_7 *2217:CLK 0
11 2213_7 2213_8 4.34
12 2213_8 2213_9 0.233333
13 2213_9 *2218:CLK 0
14 2213_9 2213_10 4.62
15 2213_10 *2219:CLK 0
16 2213_5 2213_11 2.98667
17 2213_11 2213_12 0
18 2213_12 *2220:CLK 0
19 2213_11 2213_13 4.48
20 2213_13 *2221:CLK 0
*END
*D_NET *2222 0.00193848
*CONN
*I *2223:Y O *D CLKBUF1
*I *2224:CLK I *L 0
*I *2225:CLK I *L 0
*I *2226:CLK I *L 0
*I *2227:CLK I *L 0
*I *2228:CLK I *L 0
*I *2229:CLK I *L 0
*I *2230:CLK I *L 0
*CAP
1 2222_1 0.00023664
2 2222_2 0.00024456
3 2222_3 2.04e-05
4 2222_4 0.00014256
5 2222_5 0
6 2222_6 0.000306
7 2222_7 4.08e-05
8 2222_8 0.000276
9 2222_9 2.04e-05
10 2222_10 0.00016968
11 2222_11 2.04e-05
12 2222_12 0.00046104
*RES
1 *2223:Y 2222_1 4.57333
2 2222_1 2222_2 3.12667
3 2222_2 2222_3 0.233333
4 2222_3 *2224:CLK 0
5 2222_3 2222_4 1.96
6 2222_4 2222_5 0
7 2222_5 *2225:CLK 0
8 2222_5 2222_6 3.5
9 2222_6 2222_7 0.466667
10 2222_7 *2226:CLK 0
11 2222_6 2222_8 7
12 2222_8 2222_9 0.233333
13 2222_9 *2227:CLK 0
14 2222_9 2222_10 2.38
15 2222_10 *2228:CLK 0
16 2222_1 2222_11 0.233333
17 2222_11 *2229:CLK 0
18 2222_11 2222_12 7.14
19 2222_12 *2230:CLK 0
*END
*D_NET *2231 0.0021564
*CONN
*I *2232:Y O *D CLKBUF1
*I *2233:CLK I *L 0
*I *2234:CLK I *L 0
*I *2235:CLK I *L 0
*I *2236:CLK I *L 0
*I *2237:CLK I *L 0
*I *2238:CLK I *L 0
*I *2239:CLK I *L 0
*CAP
1 2231_1 0.00058752
2 2231_2 8.16e-05
3 2231_3 6.048e-05
4 2231_4 6.12e-05
5 2231_5 0.0001008
6 2231_6 6.048e-05
7 2231_7 8.16e-05
8 2231_8 0.00035688
9 2231_9 0.0003876
10 2231_10 2.04e-05
11 2231_11 0.00019488
12 2231_12 0
13 2231_13 0.00016296
*RES
1 *2232:Y 2231_1 12.32
2 2231_1 2231_2 0.933333
3 2231_2 *2233:CLK 0
4 2231_1 2231_3 1.68
5 2231_3 2231_4 0.7
6 2231_4 *2234:CLK 0
7 2231_3 2231_5 2.8
8 2231_5 2231_6 1.68
9 2231_6 2231_7 0.933333
10 2231_7 *2235:CLK 0
11 2231_6 2231_8 8.91333
12 2231_8 *2236:CLK 0
13 2231_5 2231_9 4.43333
14 2231_9 2231_10 0.233333
15 2231_10 *2237:CLK 0
16 2231_10 2231_11 5.41333
17 2231_11 2231_12 0
18 2231_12 *2238:CLK 0
19 2231_12 2231_13 2.19333
20 2231_13 *2239:CLK 0
*END
*D_NET *2240 0.00187056
*CONN
*I *2241:Y O *D CLKBUF1
*I *2242:CLK I *L 0
*I *2243:CLK I *L 0
*I *2244:CLK I *L 0
*I *2245:CLK I *L 0
*I *2246:CLK I *L 0
*I *2247:CLK I *L 0
*I *2248:CLK I *L 0
*CAP
1 2240_1 8.16e-05
2 2240_2 0.00025128
3 2240_3 0.00010128
4 2240_4 0
5 2240_5 0.0002772
6 2240_6 2.04e-05
7 2240_7 0.000192
8 2240_8 0.0001968
9 2240_9 2.04e-05
10 2240_10 0.00016272
11 2240_11 0.0003312
12 2240_12 0.00023568
*RES
1 *2241:Y 2240_1 0.933333
2 2240_1 2240_2 3.31333
3 2240_2 *2242:CLK 0
4 2240_1 2240_3 2.14667
5 2240_3 2240_4 0
6 2240_4 *2243:CLK 0
7 2240_4 2240_5 5.36667
8 2240_5 2240_6 0.233333
9 2240_6 *2244:CLK 0
10 2240_6 2240_7 2.33333
11 2240_7 2240_8 2.8
12 2240_8 2240_9 0.233333
13 2240_9 *2245:CLK 0
14 2240_9 2240_10 2.52
15 2240_10 *2246:CLK 0
16 2240_7 2240_11 6.53333
17 2240_11 *2247:CLK 0
18 2240_1 2240_12 5.88
19 2240_12 *2248:CLK 0
*END
*D_NET *2249 0.00187632
*CONN
*I *2250:Y O *D CLKBUF1
*I *2251:CLK I *L 0
*I *2252:CLK I *L 0
*I *2253:CLK I *L 0
*I *2254:CLK I *L 0
*I *2255:CLK I *L 0
*I *2256:CLK I *L 0
*I *2257:CLK I *L 0
*CAP
1 2249_1 0.00013536
2 2249_2 6.12e-05
3 2249_3 2.04e-05
4 2249_4 0.0004824
5 2249_5 0.00017568
6 2249_6 0
7 2249_7 7.392e-05
8 2249_8 0.0001008
9 2249_9 0.0004284
10 2249_10 2.04e-05
11 2249_11 0.00019488
12 2249_12 0
13 2249_13 0.00018288
*RES
1 *2250:Y 2249_1 2.42667
2 2249_1 2249_2 0.7
3 2249_2 2249_3 0.233333
4 2249_3 *2251:CLK 0
5 2249_3 2249_4 6.06667
6 2249_4 *2252:CLK 0
7 2249_1 2249_5 3.54667
8 2249_5 2249_6 0
9 2249_6 *2253:CLK 0
10 2249_5 2249_7 2.05333
11 2249_7 2249_8 2.8
12 2249_8 *2254:CLK 0
13 2249_7 2249_9 4.9
14 2249_9 2249_10 0.233333
15 2249_10 *2255:CLK 0
16 2249_10 2249_11 5.41333
17 2249_11 2249_12 0
18 2249_12 *2256:CLK 0
19 2249_11 2249_13 3.08
20 2249_13 *2257:CLK 0
*END
*D_NET *2258 0.00214248
*CONN
*I *2259:Y O *D CLKBUF1
*I *2260:CLK I *L 0
*I *2261:CLK I *L 0
*I *2262:CLK I *L 0
*I *2263:CLK I *L 0
*I *2264:CLK I *L 0
*I *2265:CLK I *L 0
*I *2266:CLK I *L 0
*CAP
1 2258_1 0.00052296
2 2258_2 2.04e-05
3 2258_3 0.00015504
4 2258_4 0.000102
5 2258_5 2.04e-05
6 2258_6 0.00036672
7 2258_7 0
8 2258_8 0.000102
9 2258_9 0.00015504
10 2258_10 0.00040056
11 2258_11 0.00010752
12 2258_12 4.08e-05
13 2258_13 0.00014904
*RES
1 *2259:Y 2258_1 6.86
2 2258_1 2258_2 0.233333
3 2258_2 *2260:CLK 0
4 2258_2 2258_3 3.64
5 2258_3 2258_4 1.16667
6 2258_4 2258_5 0.233333
7 2258_5 *2261:CLK 0
8 2258_5 2258_6 4.85333
9 2258_6 2258_7 0
10 2258_7 *2262:CLK 0
11 2258_7 2258_8 1.16667
12 2258_8 2258_9 3.64
13 2258_9 *2263:CLK 0
14 2258_8 2258_10 5.46
15 2258_10 *2264:CLK 0
16 2258_3 2258_11 2.98667
17 2258_11 2258_12 0.466667
18 2258_12 *2265:CLK 0
19 2258_11 2258_13 2.47333
20 2258_13 *2266:CLK 0
*END
*D_NET *2267 0.00246768
*CONN
*I *2268:Y O *D CLKBUF1
*I *2269:CLK I *L 0
*I *2270:CLK I *L 0
*I *2271:CLK I *L 0
*I *2272:CLK I *L 0
*I *2273:CLK I *L 0
*I *2274:CLK I *L 0
*I *2275:CLK I *L 0
*CAP
1 2267_1 0.0001584
2 2267_2 0.00056736
3 2267_3 0.000768
4 2267_4 2.016e-05
5 2267_5 5.76e-05
6 2267_6 8.064e-05
7 2267_7 0.0001536
8 2267_8 8.4e-06
9 2267_9 4.704e-05
10 2267_10 0
11 2267_11 0.00017544
12 2267_12 0.00012768
13 2267_13 0.00030336
*RES
1 *2268:Y 2267_1 2.86667
2 2267_1 2267_2 4.36
3 2267_2 *2269:CLK 0
4 2267_1 2267_3 5.33333
5 2267_3 2267_4 0.56
6 2267_4 *2270:CLK 0
7 2267_3 2267_5 0.4
8 2267_5 2267_6 2.24
9 2267_6 *2271:CLK 0
10 2267_5 2267_7 1.06667
11 2267_7 2267_8 0.233333
12 2267_8 2267_9 1.30667
13 2267_9 2267_10 0
14 2267_10 *2272:CLK 0
15 2267_10 2267_11 2.00667
16 2267_11 *2273:CLK 0
17 2267_8 2267_12 3.54667
18 2267_12 *2274:CLK 0
19 2267_7 2267_13 3.22667
20 2267_13 *2275:CLK 0
*END
*D_NET *2276 0.00203208
*CONN
*I *2277:Y O *D CLKBUF1
*I *2278:CLK I *L 0
*I *2279:CLK I *L 0
*I *2280:CLK I *L 0
*I *2281:CLK I *L 0
*I *2282:CLK I *L 0
*I *2283:CLK I *L 0
*I *2284:CLK I *L 0
*CAP
1 2276_1 4.92e-05
2 2276_2 0.0001008
3 2276_3 0
4 2276_4 9.408e-05
5 2276_5 1.344e-05
6 2276_6 0.00010752
7 2276_7 0.0004284
8 2276_8 2.04e-05
9 2276_9 0.0002688
10 2276_10 0
11 2276_11 0.0003216
12 2276_12 0.00018048
13 2276_13 0.00044736
*RES
1 *2277:Y 2276_1 0.7
2 2276_1 2276_2 2.8
3 2276_2 2276_3 0
4 2276_3 *2278:CLK 0
5 2276_2 2276_4 2.61333
6 2276_4 2276_5 0.373333
7 2276_5 2276_6 2.98667
8 2276_6 *2279:CLK 0
9 2276_5 2276_7 4.9
10 2276_7 2276_8 0.233333
11 2276_8 *2280:CLK 0
12 2276_8 2276_9 7.46667
13 2276_9 2276_10 0
14 2276_10 *2281:CLK 0
15 2276_9 2276_11 5.73333
16 2276_11 *2282:CLK 0
17 2276_4 2276_12 1.81333
18 2276_12 *2283:CLK 0
19 2276_1 2276_13 7.09333
20 2276_13 *2284:CLK 0
*END
*D_NET *2285 0.00224424
*CONN
*I *2286:Y O *D CLKBUF1
*I *2287:CLK I *L 0
*I *2288:CLK I *L 0
*I *2289:CLK I *L 0
*I *2290:CLK I *L 0
*I *2291:CLK I *L 0
*I *2292:CLK I *L 0
*I *2293:CLK I *L 0
*CAP
1 2285_1 6.96e-05
2 2285_2 9.48e-05
3 2285_3 0.00030552
4 2285_4 0.0001428
5 2285_5 0.00025536
6 2285_6 0.0001428
7 2285_7 2.04e-05
8 2285_8 0.0001896
9 2285_9 0.0003588
10 2285_10 0.000102
11 2285_11 0.0001752
12 2285_12 2.04e-05
13 2285_13 0.00036696
*RES
1 *2286:Y 2285_1 0.933333
2 2285_1 2285_2 1.63333
3 2285_2 *2287:CLK 0
4 2285_1 2285_3 4.15333
5 2285_3 2285_4 1.63333
6 2285_4 *2288:CLK 0
7 2285_3 2285_5 7.09333
8 2285_5 2285_6 1.63333
9 2285_6 2285_7 0.233333
10 2285_7 *2289:CLK 0
11 2285_7 2285_8 3.26667
12 2285_8 *2290:CLK 0
13 2285_5 2285_9 6.3
14 2285_9 2285_10 1.16667
15 2285_10 *2291:CLK 0
16 2285_9 2285_11 4.2
17 2285_11 2285_12 0.233333
18 2285_12 *2292:CLK 0
19 2285_12 2285_13 4.52667
20 2285_13 *2293:CLK 0
*END
*D_NET *2294 0.00213576
*CONN
*I *2295:Y O *D CLKBUF1
*I *2296:CLK I *L 0
*I *2297:CLK I *L 0
*I *2298:CLK I *L 0
*I *2299:CLK I *L 0
*I *2300:CLK I *L 0
*I *2301:CLK I *L 0
*I *2302:CLK I *L 0
*CAP
1 2294_1 0.00012816
2 2294_2 0
3 2294_3 0.00017472
4 2294_4 0
5 2294_5 0.000192
6 2294_6 0.0001968
7 2294_7 2.04e-05
8 2294_8 0.00048144
9 2294_9 0.00032448
10 2294_10 2.04e-05
11 2294_11 0.00012864
12 2294_12 0.00010152
13 2294_13 0.0003672
*RES
1 *2295:Y 2294_1 2.89333
2 2294_1 2294_2 0
3 2294_2 *2296:CLK 0
4 2294_1 2294_3 4.85333
5 2294_3 2294_4 0
6 2294_4 *2297:CLK 0
7 2294_4 2294_5 2.33333
8 2294_5 2294_6 2.8
9 2294_6 2294_7 0.233333
10 2294_7 *2298:CLK 0
11 2294_7 2294_8 5.50667
12 2294_8 *2299:CLK 0
13 2294_5 2294_9 6.34667
14 2294_9 2294_10 0.233333
15 2294_10 *2300:CLK 0
16 2294_10 2294_11 2.24
17 2294_11 2294_12 1.82
18 2294_12 *2301:CLK 0
19 2294_11 2294_13 4.2
20 2294_13 *2302:CLK 0
*END
*D_NET *2303 0.00223608
*CONN
*I *2304:Y O *D CLKBUF1
*I *2305:CLK I *L 0
*I *2306:CLK I *L 0
*I *2307:CLK I *L 0
*I *2308:CLK I *L 0
*I *2309:CLK I *L 0
*I *2310:CLK I *L 0
*I *2311:CLK I *L 0
*CAP
1 2303_1 0.000102
2 2303_2 6.72e-05
3 2303_3 0
4 2303_4 4.704e-05
5 2303_5 0.0001224
6 2303_6 0.00044736
7 2303_7 0.00046104
8 2303_8 2.04e-05
9 2303_9 0.00016968
10 2303_10 2.04e-05
11 2303_11 0.00040728
12 2303_12 2.04e-05
13 2303_13 0.00035088
*RES
1 *2304:Y 2303_1 1.16667
2 2303_1 2303_2 1.86667
3 2303_2 2303_3 0
4 2303_3 *2305:CLK 0
5 2303_2 2303_4 1.30667
6 2303_4 2303_5 1.4
7 2303_5 *2306:CLK 0
8 2303_4 2303_6 7.09333
9 2303_6 *2307:CLK 0
10 2303_1 2303_7 7.14
11 2303_7 2303_8 0.233333
12 2303_8 *2308:CLK 0
13 2303_8 2303_9 2.38
14 2303_9 2303_10 0.233333
15 2303_10 *2309:CLK 0
16 2303_10 2303_11 5.64667
17 2303_11 2303_12 0.233333
18 2303_12 *2310:CLK 0
19 2303_12 2303_13 7.74667
20 2303_13 *2311:CLK 0
*END
*D_NET *2312 0.00214752
*CONN
*I *2313:Y O *D CLKBUF1
*I *2314:CLK I *L 0
*I *2315:CLK I *L 0
*I *2316:CLK I *L 0
*I *2317:CLK I *L 0
*I *2318:CLK I *L 0
*I *2319:CLK I *L 0
*I *2320:CLK I *L 0
*CAP
1 2312_1 0.0007092
2 2312_2 2.04e-05
3 2312_3 0.00019488
4 2312_4 0
5 2312_5 0.00016128
6 2312_6 0
7 2312_7 0.00018144
8 2312_8 0
9 2312_9 0.0002856
10 2312_10 0.00010824
11 2312_11 0.00022344
12 2312_12 4.08e-05
13 2312_13 0.00022224
*RES
1 *2313:Y 2312_1 14.7
2 2312_1 2312_2 0.233333
3 2312_2 *2314:CLK 0
4 2312_2 2312_3 5.41333
5 2312_3 2312_4 0
6 2312_4 *2315:CLK 0
7 2312_3 2312_5 4.48
8 2312_5 2312_6 0
9 2312_6 *2316:CLK 0
10 2312_5 2312_7 5.04
11 2312_7 2312_8 0
12 2312_8 *2317:CLK 0
13 2312_8 2312_9 3.26667
14 2312_9 2312_10 2.00667
15 2312_10 *2318:CLK 0
16 2312_9 2312_11 3.87333
17 2312_11 2312_12 0.466667
18 2312_12 *2319:CLK 0
19 2312_11 2312_13 5.50667
20 2312_13 *2320:CLK 0
*END
*D_NET *2321 0.0017304
*CONN
*I *2322:Y O *D CLKBUF1
*I *2323:CLK I *L 0
*I *2324:CLK I *L 0
*I *2325:CLK I *L 0
*I *2326:CLK I *L 0
*I *2327:CLK I *L 0
*I *2328:CLK I *L 0
*I *2329:CLK I *L 0
*CAP
1 2321_1 6.96e-05
2 2321_2 2.688e-05
3 2321_3 6.12e-05
4 2321_4 0.00012792
5 2321_5 8.16e-05
6 2321_6 0.00040776
7 2321_7 0.00014112
8 2321_8 2.688e-05
9 2321_9 8.16e-05
10 2321_10 0.00013512
11 2321_11 0.0003672
12 2321_12 2.04e-05
13 2321_13 0.00018312
*RES
1 *2322:Y 2321_1 0.933333
2 2321_1 2321_2 0.746667
3 2321_2 2321_3 0.7
4 2321_3 *2323:CLK 0
5 2321_2 2321_4 3.22
6 2321_4 2321_5 0.933333
7 2321_5 *2324:CLK 0
8 2321_4 2321_6 4.99333
9 2321_6 *2325:CLK 0
10 2321_1 2321_7 3.92
11 2321_7 2321_8 0.746667
12 2321_8 2321_9 0.933333
13 2321_9 *2326:CLK 0
14 2321_8 2321_10 2.75333
15 2321_10 *2327:CLK 0
16 2321_7 2321_11 4.2
17 2321_11 2321_12 0.233333
18 2321_12 *2328:CLK 0
19 2321_12 2321_13 2.75333
20 2321_13 *2329:CLK 0
*END
*D_NET *2330 0.00234
*CONN
*I *2331:Y O *D CLKBUF1
*I *2332:CLK I *L 0
*I *2333:CLK I *L 0
*I *2334:CLK I *L 0
*I *2335:CLK I *L 0
*I *2336:CLK I *L 0
*I *2337:CLK I *L 0
*I *2338:CLK I *L 0
*CAP
1 2330_1 0.00051528
2 2330_2 0.0001632
3 2330_3 9.408e-05
4 2330_4 6.12e-05
5 2330_5 0.0001884
6 2330_6 0.0001632
7 2330_7 2.04e-05
8 2330_8 0.0002328
9 2330_9 0.00016272
10 2330_10 0.0002904
11 2330_11 0.0002856
12 2330_12 0.0001224
13 2330_13 4.032e-05
*RES
1 *2331:Y 2330_1 7.98
2 2330_1 2330_2 1.86667
3 2330_2 *2332:CLK 0
4 2330_1 2330_3 2.61333
5 2330_3 2330_4 0.7
6 2330_4 *2333:CLK 0
7 2330_3 2330_5 4.9
8 2330_5 2330_6 1.86667
9 2330_6 2330_7 0.233333
10 2330_7 *2334:CLK 0
11 2330_7 2330_8 2.8
12 2330_8 2330_9 2.52
13 2330_9 *2335:CLK 0
14 2330_8 2330_10 6.06667
15 2330_10 *2336:CLK 0
16 2330_5 2330_11 3.26667
17 2330_11 2330_12 1.4
18 2330_12 *2337:CLK 0
19 2330_11 2330_13 1.12
20 2330_13 *2338:CLK 0
*END
*D_NET *2339 0.0023664
*CONN
*I *2340:Y O *D CLKBUF1
*I *2341:CLK I *L 0
*I *2342:CLK I *L 0
*I *2343:CLK I *L 0
*I *2344:CLK I *L 0
*I *2345:CLK I *L 0
*I *2346:CLK I *L 0
*I *2347:CLK I *L 0
*CAP
1 2339_1 0.0002232
2 2339_2 6.96e-05
3 2339_3 0.00022368
4 2339_4 2.04e-05
5 2339_5 0.0002292
6 2339_6 8.16e-05
7 2339_7 0.00044808
8 2339_8 7.392e-05
9 2339_9 0.0002508
10 2339_10 0.00031824
11 2339_11 2.04e-05
12 2339_12 0.00040728
*RES
1 *2340:Y 2339_1 4.2
2 2339_1 *2341:CLK 0
3 2339_1 2339_2 0.933333
4 2339_2 2339_3 3.54667
5 2339_3 2339_4 0.233333
6 2339_4 *2342:CLK 0
7 2339_4 2339_5 5.36667
8 2339_5 2339_6 0.933333
9 2339_6 *2343:CLK 0
10 2339_5 2339_7 6.11333
11 2339_7 *2344:CLK 0
12 2339_2 2339_8 2.05333
13 2339_8 2339_9 3.96667
14 2339_9 *2345:CLK 0
15 2339_8 2339_10 3.64
16 2339_10 2339_11 0.233333
17 2339_11 *2346:CLK 0
18 2339_11 2339_12 5.64667
19 2339_12 *2347:CLK 0
*END
*D_NET *2348 0.00174384
*CONN
*I *2349:Y O *D CLKBUF1
*I *2350:CLK I *L 0
*I *2351:CLK I *L 0
*I *2352:CLK I *L 0
*I *2353:CLK I *L 0
*I *2354:CLK I *L 0
*I *2355:CLK I *L 0
*I *2356:CLK I *L 0
*CAP
1 2348_1 0.0001692
2 2348_2 0
3 2348_3 0.0003264
4 2348_4 2.04e-05
5 2348_5 0.0001224
6 2348_6 2.04e-05
7 2348_7 0.0003264
8 2348_8 0.0002016
9 2348_9 0
10 2348_10 0.00036696
11 2348_11 2.04e-05
12 2348_12 0.00016968
*RES
1 *2349:Y 2348_1 3.03333
2 2348_1 2348_2 0
3 2348_2 *2350:CLK 0
4 2348_2 2348_3 3.73333
5 2348_3 2348_4 0.233333
6 2348_4 *2351:CLK 0
7 2348_4 2348_5 1.4
8 2348_5 2348_6 0.233333
9 2348_6 *2352:CLK 0
10 2348_6 2348_7 3.73333
11 2348_7 *2353:CLK 0
12 2348_1 2348_8 5.6
13 2348_8 2348_9 0
14 2348_9 *2354:CLK 0
15 2348_9 2348_10 4.52667
16 2348_10 2348_11 0.233333
17 2348_11 *2355:CLK 0
18 2348_11 2348_12 2.38
19 2348_12 *2356:CLK 0
*END
*D_NET *2357 0.00211584
*CONN
*I *2358:Y O *D CLKBUF1
*I *2359:CLK I *L 0
*I *2360:CLK I *L 0
*I *2361:CLK I *L 0
*I *2362:CLK I *L 0
*I *2363:CLK I *L 0
*I *2364:CLK I *L 0
*I *2365:CLK I *L 0
*CAP
1 2357_1 0.00012144
2 2357_2 0
3 2357_3 0.0002532
4 2357_4 3.36e-05
5 2357_5 0.000204
6 2357_6 0.00015456
7 2357_7 0.000102
8 2357_8 0.00035856
9 2357_9 2.04e-05
10 2357_10 0.00018144
11 2357_11 0.00014472
12 2357_12 8.16e-05
13 2357_13 0.00046032
*RES
1 *2358:Y 2357_1 2.70667
2 2357_1 2357_2 0
3 2357_2 *2359:CLK 0
4 2357_2 2357_3 3.03333
5 2357_3 2357_4 0.933333
6 2357_4 2357_5 2.33333
7 2357_5 *2360:CLK 0
8 2357_4 2357_6 4.29333
9 2357_6 2357_7 1.16667
10 2357_7 *2361:CLK 0
11 2357_6 2357_8 6.62667
12 2357_8 2357_9 0.233333
13 2357_9 *2362:CLK 0
14 2357_9 2357_10 5.04
15 2357_10 *2363:CLK 0
16 2357_3 2357_11 3.68667
17 2357_11 2357_12 0.933333
18 2357_12 *2364:CLK 0
19 2357_11 2357_13 8.12
20 2357_13 *2365:CLK 0
*END
*D_NET *2366 0.00157824
*CONN
*I *2367:Y O *D CLKBUF1
*I *2368:CLK I *L 0
*I *2369:CLK I *L 0
*I *2370:CLK I *L 0
*I *2371:CLK I *L 0
*I *2372:CLK I *L 0
*I *2373:CLK I *L 0
*I *2374:CLK I *L 0
*CAP
1 2366_1 7.44e-05
2 2366_2 8.16e-05
3 2366_3 6.048e-05
4 2366_4 6.12e-05
5 2366_5 2.016e-05
6 2366_6 0.00017568
7 2366_7 0.0003876
8 2366_8 2.04e-05
9 2366_9 0.00030552
10 2366_10 0
11 2366_11 0.00017472
12 2366_12 0.0001224
13 2366_13 9.408e-05
*RES
1 *2367:Y 2366_1 1.4
2 2366_1 2366_2 0.933333
3 2366_2 *2368:CLK 0
4 2366_1 2366_3 1.68
5 2366_3 2366_4 0.7
6 2366_4 *2369:CLK 0
7 2366_3 2366_5 0.56
8 2366_5 2366_6 3.54667
9 2366_6 *2370:CLK 0
10 2366_5 2366_7 4.43333
11 2366_7 2366_8 0.233333
12 2366_8 *2371:CLK 0
13 2366_8 2366_9 3.42
14 2366_9 2366_10 0
15 2366_10 *2372:CLK 0
16 2366_9 2366_11 4.85333
17 2366_11 2366_12 1.4
18 2366_12 *2373:CLK 0
19 2366_11 2366_13 2.61333
20 2366_13 *2374:CLK 0
*END
*D_NET *2375 0.00167088
*CONN
*I *2376:Y O *D CLKBUF1
*I *2377:CLK I *L 0
*I *2378:CLK I *L 0
*I *2379:CLK I *L 0
*I *2380:CLK I *L 0
*I *2381:CLK I *L 0
*I *2382:CLK I *L 0
*I *2383:CLK I *L 0
*CAP
1 2375_1 0.0001104
2 2375_2 4.704e-05
3 2375_3 0
4 2375_4 0.00028368
5 2375_5 5.376e-05
6 2375_6 8.736e-05
7 2375_7 0.000258
8 2375_8 2.016e-05
9 2375_9 0.00015456
10 2375_10 6.72e-05
11 2375_11 0.0003264
12 2375_12 2.04e-05
13 2375_13 0.00024192
*RES
1 *2376:Y 2375_1 1.4
2 2375_1 2375_2 1.30667
3 2375_2 2375_3 0
4 2375_3 *2377:CLK 0
5 2375_2 2375_4 5.88
6 2375_4 *2378:CLK 0
7 2375_1 2375_5 1.49333
8 2375_5 2375_6 2.42667
9 2375_6 *2379:CLK 0
10 2375_5 2375_7 1.96667
11 2375_7 2375_8 0.56
12 2375_8 *2380:CLK 0
13 2375_7 2375_9 4.29333
14 2375_9 2375_10 1.86667
15 2375_10 *2381:CLK 0
16 2375_9 2375_11 3.73333
17 2375_11 2375_12 0.233333
18 2375_12 *2382:CLK 0
19 2375_12 2375_13 6.72
20 2375_13 *2383:CLK 0
*END
*D_NET *2384 0.00200112
*CONN
*I *2385:Y O *D CLKBUF1
*I *2386:CLK I *L 0
*I *2387:CLK I *L 0
*I *2388:CLK I *L 0
*I *2389:CLK I *L 0
*I *2390:CLK I *L 0
*I *2391:CLK I *L 0
*I *2392:CLK I *L 0
*CAP
1 2384_1 8.4e-06
2 2384_2 5.376e-05
3 2384_3 0.000204
4 2384_4 2.04e-05
5 2384_5 0.0001224
6 2384_6 0.00033216
7 2384_7 2.04e-05
8 2384_8 0.00040032
9 2384_9 0.00015456
10 2384_10 0.0001428
11 2384_11 0.00031824
12 2384_12 2.04e-05
13 2384_13 0.00020328
*RES
1 *2385:Y 2384_1 0.233333
2 2384_1 2384_2 1.49333
3 2384_2 2384_3 2.33333
4 2384_3 2384_4 0.233333
5 2384_4 *2386:CLK 0
6 2384_4 2384_5 1.4
7 2384_5 *2387:CLK 0
8 2384_2 2384_6 5.22667
9 2384_6 2384_7 0.233333
10 2384_7 *2388:CLK 0
11 2384_7 2384_8 5.78667
12 2384_8 *2389:CLK 0
13 2384_1 2384_9 4.29333
14 2384_9 2384_10 1.63333
15 2384_10 *2390:CLK 0
16 2384_9 2384_11 5.50667
17 2384_11 2384_12 0.233333
18 2384_12 *2391:CLK 0
19 2384_12 2384_13 3.31333
20 2384_13 *2392:CLK 0
*END
*D_NET *2393 0.00177
*CONN
*I *2394:Y O *D BUFX2
*I *2395:R I *L 0
*I *2396:R I *L 0
*I *2397:R I *L 0
*I *2398:R I *L 0
*I *2399:R I *L 0
*I *2400:R I *L 0
*I *2401:R I *L 0
*CAP
1 2393_1 4.08e-05
2 2393_2 0.00016296
3 2393_3 0.00025704
4 2393_4 2.04e-05
5 2393_5 0.00033912
6 2393_6 6.096e-05
7 2393_7 8.112e-05
8 2393_8 0.000408
9 2393_9 8.736e-05
10 2393_10 0.0001224
11 2393_11 0.00018984
*RES
1 *2394:Y 2393_1 0.466667
2 2393_1 2393_2 2.19333
3 2393_2 *2395:R 0
4 2393_2 2393_3 2.94
5 2393_3 2393_4 0.233333
6 2393_4 *2396:R 0
7 2393_4 2393_5 5.08667
8 2393_5 *2397:R 0
9 2393_4 2393_6 1.02667
10 2393_6 2393_7 1.58667
11 2393_7 *2398:R 0
12 2393_6 2393_8 4.66667
13 2393_8 *2399:R 0
14 2393_1 2393_9 2.42667
15 2393_9 2393_10 1.4
16 2393_10 *2400:R 0
17 2393_9 2393_11 2.94
18 2393_11 *2401:R 0
*END
*D_NET *2402 0.00170904
*CONN
*I *2403:Y O *D BUFX2
*I *2404:R I *L 0
*I *2405:R I *L 0
*I *2406:R I *L 0
*I *2407:R I *L 0
*I *2408:R I *L 0
*I *2409:R I *L 0
*I *2410:R I *L 0
*CAP
1 2402_1 0.00024408
2 2402_2 0.0001428
3 2402_3 0.00023664
4 2402_4 2.04e-05
5 2402_5 0.00023664
6 2402_6 0.0002988
7 2402_7 2.04e-05
8 2402_8 0.0002376
9 2402_9 0.00027168
*RES
1 *2403:Y 2402_1 3.78
2 2402_1 *2404:R 0
3 2402_1 2402_2 1.63333
4 2402_2 *2405:R 0
5 2402_2 2402_3 2.70667
6 2402_3 *2406:R 0
7 2402_3 2402_4 0.233333
8 2402_4 2402_5 2.70667
9 2402_5 *2407:R 0
10 2402_4 2402_6 3.96667
11 2402_6 2402_7 0.233333
12 2402_7 *2408:R 0
13 2402_7 2402_8 3.26667
14 2402_8 *2409:R 0
15 2402_2 2402_9 3.54667
16 2402_9 *2410:R 0
*END
*D_NET *2411 0.00152664
*CONN
*I *2412:Y O *D BUFX2
*I *2413:R I *L 0
*I *2414:R I *L 0
*I *2415:R I *L 0
*I *2416:R I *L 0
*I *2417:R I *L 0
*I *2418:R I *L 0
*I *2419:R I *L 0
*CAP
1 2411_1 0.0001512
2 2411_2 3.36e-05
3 2411_3 0
4 2411_4 0.0002448
5 2411_5 0.00025704
6 2411_6 0.00023664
7 2411_7 7.392e-05
8 2411_8 0
9 2411_9 0.00026496
10 2411_10 0
11 2411_11 0.00026448
*RES
1 *2412:Y 2411_1 1.86667
2 2411_1 2411_2 0.933333
3 2411_2 2411_3 0
4 2411_3 *2413:R 0
5 2411_3 2411_4 2.8
6 2411_4 *2414:R 0
7 2411_4 2411_5 2.94
8 2411_5 *2415:R 0
9 2411_3 2411_6 2.70667
10 2411_6 *2416:R 0
11 2411_1 2411_7 2.05333
12 2411_7 2411_8 0
13 2411_8 *2417:R 0
14 2411_8 2411_9 3.36
15 2411_9 2411_10 0
16 2411_10 *2418:R 0
17 2411_10 2411_11 4.01333
18 2411_11 *2419:R 0
*END
*D_NET *2420 0.00327384
*CONN
*I *2421:Y O *D BUFX2
*I *2422:R I *L 0
*I *2423:R I *L 0
*I *2424:R I *L 0
*I *2425:R I *L 0
*I *2426:R I *L 0
*I *2427:R I *L 0
*I *2428:R I *L 0
*CAP
1 2420_1 2.04e-05
2 2420_2 0.00015504
3 2420_3 0.0003048
4 2420_4 0.00046872
5 2420_5 2.04e-05
6 2420_6 0.000204
7 2420_7 7.392e-05
8 2420_8 5.376e-05
9 2420_9 4.704e-05
10 2420_10 0.00192576
*RES
1 *2421:Y 2420_1 0.233333
2 2420_1 2420_2 3.64
3 2420_2 *2422:R 0
4 2420_2 2420_3 5.13333
5 2420_3 *2423:R 0
6 2420_1 2420_4 6.02
7 2420_4 2420_5 0.233333
8 2420_5 *2424:R 0
9 2420_5 2420_6 2.33333
10 2420_6 *2425:R 0
11 2420_5 2420_7 2.05333
12 2420_7 *2426:R 0
13 2420_5 2420_8 1.49333
14 2420_8 2420_9 1.30667
15 2420_9 *2427:R 0
16 2420_8 2420_10 17.2933
17 2420_10 *2428:R 0
*END
*D_NET *2429 0.00155928
*CONN
*I *2430:Y O *D BUFX2
*I *2431:R I *L 0
*I *2432:R I *L 0
*I *2433:R I *L 0
*I *2434:R I *L 0
*I *2435:R I *L 0
*I *2436:R I *L 0
*I *2437:R I *L 0
*CAP
1 2429_1 8.4e-06
2 2429_2 8.112e-05
3 2429_3 0.0002448
4 2429_4 2.04e-05
5 2429_5 0.00025704
6 2429_6 2.04e-05
7 2429_7 0.00035928
8 2429_8 0.00039936
9 2429_9 6.048e-05
10 2429_10 0.000108
*RES
1 *2430:Y 2429_1 0.233333
2 2429_1 2429_2 1.58667
3 2429_2 *2431:R 0
4 2429_2 2429_3 2.8
5 2429_3 2429_4 0.233333
6 2429_4 *2432:R 0
7 2429_4 2429_5 2.94
8 2429_5 2429_6 0.233333
9 2429_6 *2433:R 0
10 2429_6 2429_7 5.64667
11 2429_7 *2434:R 0
12 2429_6 2429_8 7.09333
13 2429_8 *2435:R 0
14 2429_4 2429_9 1.68
15 2429_9 *2436:R 0
16 2429_1 2429_10 2.33333
17 2429_10 *2437:R 0
*END
*D_NET *2438 0.00215448
*CONN
*I *2439:Y O *D BUFX2
*I *2440:R I *L 0
*I *2441:R I *L 0
*I *2442:R I *L 0
*I *2443:R I *L 0
*I *2444:R I *L 0
*I *2445:R I *L 0
*I *2446:R I *L 0
*CAP
1 2438_1 0.00019488
2 2438_2 8.16e-05
3 2438_3 0.00041856
4 2438_4 2.04e-05
5 2438_5 0.00050256
6 2438_6 0.00025704
7 2438_7 2.04e-05
8 2438_8 8.064e-05
9 2438_9 0.0002532
10 2438_10 3.36e-05
11 2438_11 0.0002916
*RES
1 *2439:Y 2438_1 5.41333
2 2438_1 2438_2 0.933333
3 2438_2 *2440:R 0
4 2438_1 2438_3 5.09333
5 2438_3 2438_4 0.233333
6 2438_4 *2441:R 0
7 2438_4 2438_5 6.62667
8 2438_5 *2442:R 0
9 2438_5 2438_6 2.94
10 2438_6 2438_7 0.233333
11 2438_7 *2443:R 0
12 2438_7 2438_8 2.24
13 2438_8 *2444:R 0
14 2438_7 2438_9 3.03333
15 2438_9 2438_10 0.933333
16 2438_10 *2445:R 0
17 2438_9 2438_11 4.43333
18 2438_11 *2446:R 0
*END
*D_NET *2447 0.00118584
*CONN
*I *2448:Y O *D BUFX2
*I *2449:R I *L 0
*I *2450:R I *L 0
*I *2451:R I *L 0
*I *2452:R I *L 0
*I *2453:R I *L 0
*I *2454:R I *L 0
*I *2455:R I *L 0
*CAP
1 2447_1 0.0001836
2 2447_2 3.264e-05
3 2447_3 8.736e-05
4 2447_4 2.04e-05
5 2447_5 0.0002448
6 2447_6 8.736e-05
7 2447_7 6.048e-05
8 2447_8 0.0002448
9 2447_9 2.04e-05
10 2447_10 0.000204
*RES
1 *2448:Y 2447_1 2.1
2 2447_1 2447_2 0.373333
3 2447_2 *2449:R 0
4 2447_1 2447_3 2.42667
5 2447_3 *2450:R 0
6 2447_3 2447_4 0.233333
7 2447_4 2447_5 2.8
8 2447_5 *2451:R 0
9 2447_4 2447_6 2.42667
10 2447_6 *2452:R 0
11 2447_6 2447_7 1.68
12 2447_7 *2453:R 0
13 2447_7 2447_8 2.8
14 2447_8 2447_9 0.233333
15 2447_9 *2454:R 0
16 2447_9 2447_10 2.33333
17 2447_10 *2455:R 0
*END
*D_NET *2456 0.00219792
*CONN
*I *2457:Y O *D BUFX2
*I *2458:R I *L 0
*I *2459:R I *L 0
*I *2460:R I *L 0
*I *2461:R I *L 0
*I *2462:R I *L 0
*I *2463:R I *L 0
*I *2464:R I *L 0
*CAP
1 2456_1 2.04e-05
2 2456_2 0.0001632
3 2456_3 2.04e-05
4 2456_4 8.112e-05
5 2456_5 0.0001836
6 2456_6 0.00016824
7 2456_7 4.08e-05
8 2456_8 0.00070632
9 2456_9 2.04e-05
10 2456_10 0.00031224
11 2456_11 2.04e-05
12 2456_12 0.00027816
13 2456_13 0.00018264
*RES
1 *2457:Y 2456_1 0.233333
2 2456_1 2456_2 1.86667
3 2456_2 2456_3 0.233333
4 2456_3 *2458:R 0
5 2456_3 2456_4 1.58667
6 2456_4 2456_5 2.1
7 2456_5 *2459:R 0
8 2456_4 2456_6 4.34
9 2456_6 2456_7 0.466667
10 2456_7 *2460:R 0
11 2456_6 2456_8 9.28667
12 2456_8 2456_9 0.233333
13 2456_9 *2461:R 0
14 2456_9 2456_10 4.34
15 2456_10 2456_11 0.233333
16 2456_11 *2462:R 0
17 2456_11 2456_12 4.06
18 2456_12 *2463:R 0
19 2456_1 2456_13 3.40667
20 2456_13 *2464:R 0
*END
*D_NET *2465 0.00168144
*CONN
*I *2466:Y O *D BUFX2
*I *2467:R I *L 0
*I *2468:R I *L 0
*I *2469:R I *L 0
*I *2470:R I *L 0
*I *2471:R I *L 0
*I *2472:R I *L 0
*I *2473:R I *L 0
*CAP
1 2465_1 0.00012096
2 2465_2 0.00010152
3 2465_3 0.0003876
4 2465_4 0.0002448
5 2465_5 0.000204
6 2465_6 0.00026472
7 2465_7 4.704e-05
8 2465_8 5.376e-05
9 2465_9 0.00025704
*RES
1 *2466:Y 2465_1 3.36
2 2465_1 2465_2 1.82
3 2465_2 *2467:R 0
4 2465_1 2465_3 4.43333
5 2465_3 *2468:R 0
6 2465_3 2465_4 2.8
7 2465_4 2465_5 2.33333
8 2465_5 *2469:R 0
9 2465_5 2465_6 3.68667
10 2465_6 *2470:R 0
11 2465_6 2465_7 1.30667
12 2465_7 *2471:R 0
13 2465_4 2465_8 1.49333
14 2465_8 *2472:R 0
15 2465_8 2465_9 2.94
16 2465_9 *2473:R 0
*END
*D_NET *2474 0.00181008
*CONN
*I *2475:Y O *D BUFX2
*I *2476:R I *L 0
*I *2477:R I *L 0
*I *2478:R I *L 0
*I *2479:R I *L 0
*I *2480:R I *L 0
*I *2481:R I *L 0
*I *2482:R I *L 0
*CAP
1 2474_1 0.0001428
2 2474_2 2.04e-05
3 2474_3 0.00037944
4 2474_4 2.04e-05
5 2474_5 0.00018864
6 2474_6 0.0001836
7 2474_7 0.00014112
8 2474_8 0
9 2474_9 0.0001296
10 2474_10 0.00031224
11 2474_11 2.04e-05
12 2474_12 0.00027144
*RES
1 *2475:Y 2474_1 1.63333
2 2474_1 2474_2 0.233333
3 2474_2 *2476:R 0
4 2474_2 2474_3 6.20667
5 2474_3 2474_4 0.233333
6 2474_4 *2477:R 0
7 2474_4 2474_5 4.57333
8 2474_5 2474_6 2.1
9 2474_6 *2478:R 0
10 2474_6 2474_7 3.92
11 2474_7 2474_8 0
12 2474_8 *2479:R 0
13 2474_7 2474_9 1.6
14 2474_9 *2480:R 0
15 2474_5 2474_10 4.34
16 2474_10 2474_11 0.233333
17 2474_11 *2481:R 0
18 2474_11 2474_12 3.87333
19 2474_12 *2482:R 0
*END
*D_NET *2483 0.00208656
*CONN
*I *2484:Y O *D BUFX2
*I *2485:R I *L 0
*I *2486:R I *L 0
*I *2487:R I *L 0
*I *2488:R I *L 0
*I *2489:R I *L 0
*I *2490:R I *L 0
*I *2491:R I *L 0
*CAP
1 2483_1 0.00026424
2 2483_2 2.04e-05
3 2483_3 0.00025128
4 2483_4 0.0002448
5 2483_5 2.04e-05
6 2483_6 0.0002124
7 2483_7 6.048e-05
8 2483_8 0.0002448
9 2483_9 0.0003144
10 2483_10 0.00045336
*RES
1 *2484:Y 2483_1 4.34
2 2483_1 *2485:R 0
3 2483_1 2483_2 0.233333
4 2483_2 2483_3 3.31333
5 2483_3 *2486:R 0
6 2483_3 2483_4 2.8
7 2483_4 2483_5 0.233333
8 2483_5 *2487:R 0
9 2483_5 2483_6 2.56667
10 2483_6 2483_7 1.68
11 2483_7 *2488:R 0
12 2483_7 2483_8 2.8
13 2483_8 *2489:R 0
14 2483_6 2483_9 5.86667
15 2483_9 *2490:R 0
16 2483_2 2483_10 8.26
17 2483_10 *2491:R 0
*END
*D_NET *2492 0.00131304
*CONN
*I *2493:Y O *D BUFX2
*I *2494:R I *L 0
*I *2495:R I *L 0
*I *2496:R I *L 0
*I *2497:R I *L 0
*I *2498:R I *L 0
*I *2499:R I *L 0
*I *2500:R I *L 0
*CAP
1 2492_1 2.04e-05
2 2492_2 0.00022344
3 2492_3 0.00012096
4 2492_4 3.36e-05
5 2492_5 0.00024288
6 2492_6 0
7 2492_7 0.00025128
8 2492_8 6.12e-05
9 2492_9 0.00015528
10 2492_10 0.000204
*RES
1 *2493:Y 2492_1 0.233333
2 2492_1 2492_2 3.87333
3 2492_2 *2494:R 0
4 2492_2 2492_3 3.36
5 2492_3 *2495:R 0
6 2492_3 2492_4 0.933333
7 2492_4 *2496:R 0
8 2492_1 2492_5 5.41333
9 2492_5 2492_6 0
10 2492_6 *2497:R 0
11 2492_6 2492_7 3.31333
12 2492_7 2492_8 0.7
13 2492_8 *2498:R 0
14 2492_7 2492_9 3.31333
15 2492_9 *2499:R 0
16 2492_9 2492_10 2.33333
17 2492_10 *2500:R 0
*END
*D_NET *2501 0.00225768
*CONN
*I *2502:Y O *D BUFX2
*I *2503:R I *L 0
*I *2504:R I *L 0
*I *2505:R I *L 0
*I *2506:R I *L 0
*I *2507:R I *L 0
*I *2508:R I *L 0
*I *2509:R I *L 0
*CAP
1 2501_1 2.04e-05
2 2501_2 0.0001428
3 2501_3 0.00013536
4 2501_4 0.00029832
5 2501_5 0.00044688
6 2501_6 0.00023688
7 2501_7 0.0001224
8 2501_8 0.00060984
9 2501_9 0.0002448
*RES
1 *2502:Y 2501_1 0.233333
2 2501_1 2501_2 1.63333
3 2501_2 *2503:R 0
4 2501_1 2501_3 2.42667
5 2501_3 *2504:R 0
6 2501_3 2501_4 4.62
7 2501_4 *2505:R 0
8 2501_4 2501_5 7.74667
9 2501_5 *2506:R 0
10 2501_5 2501_6 4.24667
11 2501_6 2501_7 1.4
12 2501_7 *2507:R 0
13 2501_6 2501_8 9.94
14 2501_8 *2508:R 0
15 2501_8 2501_9 2.8
16 2501_9 *2509:R 0
*END
*D_NET *2510 0.00171072
*CONN
*I *2511:Y O *D BUFX2
*I *2512:R I *L 0
*I *2513:R I *L 0
*I *2514:R I *L 0
*I *2515:R I *L 0
*I *2516:R I *L 0
*I *2517:R I *L 0
*I *2518:R I *L 0
*CAP
1 2510_1 0.0001356
2 2510_2 0.0001428
3 2510_3 0.0001836
4 2510_4 8.16e-05
5 2510_5 8.4e-06
6 2510_6 0.00024288
7 2510_7 0.00040632
8 2510_8 9e-05
9 2510_9 6.048e-05
10 2510_10 0.0002784
11 2510_11 8.064e-05
*RES
1 *2511:Y 2510_1 0.98
2 2510_1 2510_2 1.63333
3 2510_2 *2512:R 0
4 2510_2 2510_3 2.1
5 2510_3 2510_4 0.933333
6 2510_4 *2513:R 0
7 2510_3 2510_5 0.233333
8 2510_5 2510_6 5.41333
9 2510_6 *2514:R 0
10 2510_5 2510_7 6.95333
11 2510_7 *2515:R 0
12 2510_1 2510_8 1.16667
13 2510_8 2510_9 1.68
14 2510_9 *2516:R 0
15 2510_8 2510_10 3.73333
16 2510_10 *2517:R 0
17 2510_10 2510_11 2.24
18 2510_11 *2518:R 0
*END
*D_NET *2519 0.00119496
*CONN
*I *2520:Y O *D BUFX2
*I *2521:R I *L 0
*I *2522:R I *L 0
*I *2523:R I *L 0
*I *2524:R I *L 0
*I *2525:R I *L 0
*I *2526:R I *L 0
*I *2527:R I *L 0
*CAP
1 2519_1 6.768e-05
2 2519_2 0.000204
3 2519_3 4.704e-05
4 2519_4 2.016e-05
5 2519_5 2.04e-05
6 2519_6 0.0002448
7 2519_7 0.00014208
8 2519_8 0.0002448
9 2519_9 0.000204
*RES
1 *2520:Y 2519_1 1.21333
2 2519_1 *2521:R 0
3 2519_1 2519_2 2.33333
4 2519_2 *2522:R 0
5 2519_2 2519_3 1.30667
6 2519_3 2519_4 0.56
7 2519_4 *2523:R 0
8 2519_4 2519_5 0.233333
9 2519_5 2519_6 2.8
10 2519_6 *2524:R 0
11 2519_5 2519_7 2.61333
12 2519_7 *2525:R 0
13 2519_7 2519_8 2.8
14 2519_8 *2526:R 0
15 2519_3 2519_9 2.33333
16 2519_9 *2527:R 0
*END
*D_NET *2528 0.00197208
*CONN
*I *2529:Y O *D BUFX2
*I *2530:R I *L 0
*I *2531:R I *L 0
*I *2532:R I *L 0
*I *2533:R I *L 0
*I *2534:R I *L 0
*I *2535:R I *L 0
*I *2536:R I *L 0
*CAP
1 2528_1 8.16e-05
2 2528_2 0.00020976
3 2528_3 0.00016296
4 2528_4 0.0001224
5 2528_5 0.0002568
6 2528_6 0.00015456
7 2528_7 0.00012888
8 2528_8 0.0002856
9 2528_9 2.04e-05
10 2528_10 0.00029784
11 2528_11 0.00025128
*RES
1 *2529:Y 2528_1 0.933333
2 2528_1 2528_2 3.82667
3 2528_2 *2530:R 0
4 2528_2 2528_3 2.19333
5 2528_3 2528_4 1.4
6 2528_4 *2531:R 0
7 2528_3 2528_5 5.13333
8 2528_5 *2532:R 0
9 2528_1 2528_6 4.29333
10 2528_6 2528_7 1.91333
11 2528_7 *2533:R 0
12 2528_6 2528_8 3.26667
13 2528_8 2528_9 0.233333
14 2528_9 *2534:R 0
15 2528_9 2528_10 3.40667
16 2528_10 *2535:R 0
17 2528_10 2528_11 3.31333
18 2528_11 *2536:R 0
*END
*D_NET *2537 0.00233088
*CONN
*I *2538:Y O *D BUFX2
*I *2539:R I *L 0
*I *2540:R I *L 0
*I *2541:R I *L 0
*I *2542:R I *L 0
*I *2543:R I *L 0
*I *2544:R I *L 0
*I *2545:R I *L 0
*CAP
1 2537_1 0.000264
2 2537_2 0.00024408
3 2537_3 0.00031824
4 2537_4 4.704e-05
5 2537_5 4.08e-05
6 2537_6 0.00023664
7 2537_7 0.00021504
8 2537_8 0.0002652
9 2537_9 0.00045504
10 2537_10 0.0002448
*RES
1 *2538:Y 2537_1 4.66667
2 2537_1 *2539:R 0
3 2537_1 2537_2 3.78
4 2537_2 *2540:R 0
5 2537_1 2537_3 5.50667
6 2537_3 2537_4 1.30667
7 2537_4 *2541:R 0
8 2537_4 2537_5 0.466667
9 2537_5 2537_6 2.70667
10 2537_6 *2542:R 0
11 2537_5 2537_7 5.97333
12 2537_7 2537_8 3.03333
13 2537_8 *2543:R 0
14 2537_7 2537_9 5.97333
15 2537_9 *2544:R 0
16 2537_3 2537_10 2.8
17 2537_10 *2545:R 0
*END
*D_NET *2546 0.00154512
*CONN
*I *2547:Y O *D BUFX2
*I *2548:R I *L 0
*I *2549:R I *L 0
*I *2550:R I *L 0
*I *2551:R I *L 0
*I *2552:R I *L 0
*I *2553:R I *L 0
*I *2554:R I *L 0
*CAP
1 2546_1 2.04e-05
2 2546_2 0.0001428
3 2546_3 0.00013536
4 2546_4 0
5 2546_5 0.00029784
6 2546_6 0.00018888
7 2546_7 9.48e-05
8 2546_8 0.0002448
9 2546_9 2.04e-05
10 2546_10 0.00023664
11 2546_11 0.0001632
*RES
1 *2547:Y 2546_1 0.233333
2 2546_1 2546_2 1.63333
3 2546_2 *2548:R 0
4 2546_1 2546_3 2.42667
5 2546_3 2546_4 0
6 2546_4 *2549:R 0
7 2546_4 2546_5 3.40667
8 2546_5 *2550:R 0
9 2546_4 2546_6 4.24667
10 2546_6 2546_7 1.63333
11 2546_7 *2551:R 0
12 2546_7 2546_8 2.8
13 2546_8 2546_9 0.233333
14 2546_9 *2552:R 0
15 2546_9 2546_10 2.70667
16 2546_10 *2553:R 0
17 2546_6 2546_11 1.86667
18 2546_11 *2554:R 0
*END
*D_NET *2555 0.00214968
*CONN
*I *2556:Y O *D BUFX2
*I *2557:R I *L 0
*I *2558:R I *L 0
*I *2559:R I *L 0
*I *2560:R I *L 0
*I *2561:R I *L 0
*I *2562:R I *L 0
*I *2563:R I *L 0
*CAP
1 2555_1 6.744e-05
2 2555_2 4.08e-05
3 2555_3 0.00033936
4 2555_4 0.0001428
5 2555_5 2.04e-05
6 2555_6 0.00025704
7 2555_7 2.04e-05
8 2555_8 0.0002448
9 2555_9 2.04e-05
10 2555_10 0.0001428
11 2555_11 0.00014904
12 2555_12 0.00030336
13 2555_13 0.00040104
*RES
1 *2556:Y 2555_1 1.54
2 2555_1 2555_2 0.466667
3 2555_2 *2557:R 0
4 2555_1 2555_3 4.76
5 2555_3 2555_4 1.63333
6 2555_4 2555_5 0.233333
7 2555_5 *2558:R 0
8 2555_5 2555_6 2.94
9 2555_6 2555_7 0.233333
10 2555_7 *2559:R 0
11 2555_7 2555_8 2.8
12 2555_8 2555_9 0.233333
13 2555_9 *2560:R 0
14 2555_9 2555_10 1.63333
15 2555_10 2555_11 2.47333
16 2555_11 *2561:R 0
17 2555_10 2555_12 7.09333
18 2555_12 *2562:R 0
19 2555_3 2555_13 9.47333
20 2555_13 *2563:R 0
*END
*D_NET *2564 0.00144384
*CONN
*I *2565:Y O *D BUFX2
*I *2566:R I *L 0
*I *2567:R I *L 0
*I *2568:R I *L 0
*I *2569:R I *L 0
*I *2570:R I *L 0
*I *2571:R I *L 0
*I *2572:R I *L 0
*CAP
1 2564_1 7.44e-05
2 2564_2 2.04e-05
3 2564_3 0.0002448
4 2564_4 9.408e-05
5 2564_5 2.04e-05
6 2564_6 0.0002448
7 2564_7 0.0002916
8 2564_8 0.0002448
9 2564_9 2.04e-05
10 2564_10 0.00018816
*RES
1 *2565:Y 2564_1 1.4
2 2564_1 *2566:R 0
3 2564_1 2564_2 0.233333
4 2564_2 2564_3 2.8
5 2564_3 *2567:R 0
6 2564_2 2564_4 2.61333
7 2564_4 *2568:R 0
8 2564_4 2564_5 0.233333
9 2564_5 2564_6 2.8
10 2564_6 *2569:R 0
11 2564_5 2564_7 4.43333
12 2564_7 *2570:R 0
13 2564_7 2564_8 2.8
14 2564_8 2564_9 0.233333
15 2564_9 *2571:R 0
16 2564_9 2564_10 5.22667
17 2564_10 *2572:R 0
*END
*D_NET *2573 0.00133488
*CONN
*I *2574:Y O *D BUFX2
*I *2575:R I *L 0
*I *2576:R I *L 0
*I *2577:R I *L 0
*I *2578:R I *L 0
*I *2579:R I *L 0
*I *2580:R I *L 0
*I *2581:R I *L 0
*CAP
1 2573_1 6.6e-05
2 2573_2 8.784e-05
3 2573_3 0.00025128
4 2573_4 0.00022416
5 2573_5 4.08e-05
6 2573_6 0.0001836
7 2573_7 8.112e-05
8 2573_8 0.00010848
9 2573_9 0.0001224
10 2573_10 0.0001692
*RES
1 *2574:Y 2573_1 0.606667
2 2573_1 2573_2 1.77333
3 2573_2 *2575:R 0
4 2573_2 2573_3 3.31333
5 2573_3 *2576:R 0
6 2573_3 2573_4 2.89333
7 2573_4 *2577:R 0
8 2573_4 2573_5 0.466667
9 2573_5 2573_6 2.1
10 2573_6 *2578:R 0
11 2573_5 2573_7 1.58667
12 2573_7 *2579:R 0
13 2573_1 2573_8 1.68
14 2573_8 2573_9 1.4
15 2573_9 *2580:R 0
16 2573_8 2573_10 3.03333
17 2573_10 *2581:R 0
*END
*D_NET *2582 0.00166248
*CONN
*I *2583:Y O *D BUFX2
*I *2584:R I *L 0
*I *2585:R I *L 0
*I *2586:R I *L 0
*I *2587:R I *L 0
*I *2588:R I *L 0
*I *2589:R I *L 0
*I *2590:R I *L 0
*CAP
1 2582_1 9e-05
2 2582_2 0.00012888
3 2582_3 0.000204
4 2582_4 2.04e-05
5 2582_5 0.0002244
6 2582_6 4.08e-05
7 2582_7 0.0001752
8 2582_8 0.00026904
9 2582_9 0.000102
10 2582_10 2.04e-05
11 2582_11 0.00022416
12 2582_12 0.0001632
*RES
1 *2583:Y 2582_1 1.16667
2 2582_1 2582_2 1.91333
3 2582_2 *2584:R 0
4 2582_2 2582_3 2.33333
5 2582_3 2582_4 0.233333
6 2582_4 *2585:R 0
7 2582_4 2582_5 2.56667
8 2582_5 2582_6 0.466667
9 2582_6 *2586:R 0
10 2582_5 2582_7 4.2
11 2582_7 *2587:R 0
12 2582_1 2582_8 7.14
13 2582_8 2582_9 1.16667
14 2582_9 2582_10 0.233333
15 2582_10 *2588:R 0
16 2582_10 2582_11 2.89333
17 2582_11 *2589:R 0
18 2582_8 2582_12 1.86667
19 2582_12 *2590:R 0
*END
*D_NET *2591 0.00173496
*CONN
*I *2592:Y O *D BUFX2
*I *2593:R I *L 0
*I *2594:R I *L 0
*I *2595:R I *L 0
*I *2596:R I *L 0
*I *2597:R I *L 0
*I *2598:R I *L 0
*I *2599:R I *L 0
*CAP
1 2591_1 0.00014112
2 2591_2 8.808e-05
3 2591_3 0.0002652
4 2591_4 3.264e-05
5 2591_5 0.00026472
6 2591_6 0.00032544
7 2591_7 0.0002448
8 2591_8 2.04e-05
9 2591_9 0.00028536
10 2591_10 6.72e-05
*RES
1 *2592:Y 2591_1 3.92
2 2591_1 2591_2 1.44667
3 2591_2 *2593:R 0
4 2591_2 2591_3 3.03333
5 2591_3 2591_4 0.373333
6 2591_4 *2594:R 0
7 2591_3 2591_5 3.68667
8 2591_5 *2595:R 0
9 2591_5 2591_6 5.04
10 2591_6 *2596:R 0
11 2591_1 2591_7 2.8
12 2591_7 2591_8 0.233333
13 2591_8 *2597:R 0
14 2591_8 2591_9 3.59333
15 2591_9 *2598:R 0
16 2591_9 2591_10 1.86667
17 2591_10 *2599:R 0
*END
*D_NET *2600 0.00275592
*CONN
*I *2601:Y O *D BUFX2
*I *2602:R I *L 0
*I *2603:R I *L 0
*I *2604:R I *L 0
*I *2605:R I *L 0
*I *2606:R I *L 0
*I *2607:R I *L 0
*I *2608:R I *L 0
*CAP
1 2600_1 0.0001236
2 2600_2 0.00018336
3 2600_3 2.04e-05
4 2600_4 0.00031152
5 2600_5 0.0002448
6 2600_6 2.04e-05
7 2600_7 0.000522
8 2600_8 0.0003648
9 2600_9 2.04e-05
10 2600_10 0.00065256
11 2600_11 0.00029208
*RES
1 *2601:Y 2600_1 0.98
2 2600_1 2600_2 2.42667
3 2600_2 2600_3 0.233333
4 2600_3 *2602:R 0
5 2600_3 2600_4 5.32
6 2600_4 *2603:R 0
7 2600_4 2600_5 2.8
8 2600_5 2600_6 0.233333
9 2600_6 *2604:R 0
10 2600_6 2600_7 6.3
11 2600_7 *2605:R 0
12 2600_1 2600_8 7.46667
13 2600_8 2600_9 0.233333
14 2600_9 *2606:R 0
15 2600_9 2600_10 7.79333
16 2600_10 *2607:R 0
17 2600_10 2600_11 3.78
18 2600_11 *2608:R 0
*END
*D_NET *2609 0.00139848
*CONN
*I *2610:Y O *D BUFX2
*I *2611:R I *L 0
*I *2612:R I *L 0
*I *2613:R I *L 0
*I *2614:R I *L 0
*I *2615:R I *L 0
*I *2616:R I *L 0
*I *2617:R I *L 0
*CAP
1 2609_1 0.0001632
2 2609_2 0.0001428
3 2609_3 2.04e-05
4 2609_4 6.72e-05
5 2609_5 2.04e-05
6 2609_6 0.00025128
7 2609_7 0.000204
8 2609_8 0.0004284
9 2609_9 0.0001008
*RES
1 *2610:Y 2609_1 1.86667
2 2609_1 2609_2 1.63333
3 2609_2 2609_3 0.233333
4 2609_3 *2611:R 0
5 2609_3 2609_4 1.86667
6 2609_4 *2612:R 0
7 2609_1 2609_5 0.233333
8 2609_5 *2613:R 0
9 2609_5 2609_6 3.31333
10 2609_6 *2614:R 0
11 2609_6 2609_7 2.33333
12 2609_7 *2615:R 0
13 2609_7 2609_8 4.9
14 2609_8 *2616:R 0
15 2609_7 2609_9 2.8
16 2609_9 *2617:R 0
*END
*D_NET *2618 0.00254832
*CONN
*I *2619:Y O *D BUFX2
*I *2620:R I *L 0
*I *2621:R I *L 0
*I *2622:R I *L 0
*I *2623:R I *L 0
*I *2624:R I *L 0
*I *2625:R I *L 0
*I *2626:R I *L 0
*CAP
1 2618_1 0.00087552
2 2618_2 0.0002616
3 2618_3 0.0002244
4 2618_4 3.264e-05
5 2618_5 0.0002448
6 2618_6 0.00018888
7 2618_7 4.08e-05
8 2618_8 0.00043488
9 2618_9 0
10 2618_10 0.0002448
*RES
1 *2619:Y 2618_1 10.4533
2 2618_1 *2620:R 0
3 2618_1 2618_2 2.70667
4 2618_2 *2621:R 0
5 2618_2 2618_3 2.56667
6 2618_3 2618_4 0.373333
7 2618_4 *2622:R 0
8 2618_3 2618_5 2.8
9 2618_5 *2623:R 0
10 2618_5 2618_6 4.24667
11 2618_6 2618_7 0.466667
12 2618_7 *2624:R 0
13 2618_6 2618_8 5.41333
14 2618_8 2618_9 0
15 2618_9 *2625:R 0
16 2618_9 2618_10 2.8
17 2618_10 *2626:R 0
*END
*D_NET *2627 0.00160464
*CONN
*I *2628:Y O *D BUFX2
*I *2629:R I *L 0
*I *2630:R I *L 0
*I *2631:R I *L 0
*I *2632:R I *L 0
*I *2633:R I *L 0
*I *2634:R I *L 0
*I *2635:R I *L 0
*CAP
1 2627_1 8.784e-05
2 2627_2 0.00016224
3 2627_3 0.0001836
4 2627_4 2.04e-05
5 2627_5 0.0002376
6 2627_6 0.0002952
7 2627_7 0.000204
8 2627_8 0.00016896
9 2627_9 0.0002448
*RES
1 *2628:Y 2627_1 1.77333
2 2627_1 *2629:R 0
3 2627_1 2627_2 3.17333
4 2627_2 2627_3 2.1
5 2627_3 2627_4 0.233333
6 2627_4 *2630:R 0
7 2627_4 2627_5 3.26667
8 2627_5 *2631:R 0
9 2627_2 2627_6 4.2
10 2627_6 *2632:R 0
11 2627_6 2627_7 2.33333
12 2627_7 *2633:R 0
13 2627_7 2627_8 3.36
14 2627_8 *2634:R 0
15 2627_8 2627_9 2.8
16 2627_9 *2635:R 0
*END
*D_NET *2636 0.00164952
*CONN
*I *2637:Y O *D BUFX2
*I *2638:R I *L 0
*I *2639:R I *L 0
*I *2640:R I *L 0
*I *2641:R I *L 0
*I *2642:R I *L 0
*I *2643:R I *L 0
*I *2644:R I *L 0
*CAP
1 2636_1 8.136e-05
2 2636_2 0.0001224
3 2636_3 2.04e-05
4 2636_4 0.00026472
5 2636_5 7.392e-05
6 2636_6 0.0001428
7 2636_7 0.00012888
8 2636_8 0.0002244
9 2636_9 8.784e-05
10 2636_10 2.04e-05
11 2636_11 0.0002448
12 2636_12 0.0002376
*RES
1 *2637:Y 2636_1 1.26
2 2636_1 2636_2 1.4
3 2636_2 2636_3 0.233333
4 2636_3 *2638:R 0
5 2636_3 2636_4 3.68667
6 2636_4 *2639:R 0
7 2636_1 2636_5 2.05333
8 2636_5 2636_6 1.63333
9 2636_6 *2640:R 0
10 2636_5 2636_7 1.91333
11 2636_7 2636_8 2.56667
12 2636_8 *2641:R 0
13 2636_7 2636_9 1.77333
14 2636_9 *2642:R 0
15 2636_9 2636_10 0.233333
16 2636_10 2636_11 2.8
17 2636_11 *2643:R 0
18 2636_10 2636_12 3.26667
19 2636_12 *2644:R 0
*END
*D_NET *2645 0.00138
*CONN
*I *2646:Y O *D BUFX2
*I *2647:R I *L 0
*I *2648:R I *L 0
*I *2649:R I *L 0
*I *2650:R I *L 0
*I *2651:R I *L 0
*I *2652:R I *L 0
*I *2653:R I *L 0
*CAP
1 2645_1 0.0001392
2 2645_2 0.0001632
3 2645_3 2.04e-05
4 2645_4 0.00027144
5 2645_5 2.04e-05
6 2645_6 0.00028536
7 2645_7 6.72e-05
8 2645_8 0.0001224
9 2645_9 2.04e-05
10 2645_10 0.0001008
11 2645_11 0.0001692
*RES
1 *2646:Y 2645_1 1.30667
2 2645_1 2645_2 1.86667
3 2645_2 2645_3 0.233333
4 2645_3 *2647:R 0
5 2645_3 2645_4 3.87333
6 2645_4 2645_5 0.233333
7 2645_5 *2648:R 0
8 2645_5 2645_6 3.59333
9 2645_6 *2649:R 0
10 2645_6 2645_7 1.86667
11 2645_7 *2650:R 0
12 2645_1 2645_8 1.4
13 2645_8 2645_9 0.233333
14 2645_9 *2651:R 0
15 2645_9 2645_10 2.8
16 2645_10 *2652:R 0
17 2645_1 2645_11 3.03333
18 2645_11 *2653:R 0
*END
*D_NET *2654 0.00133968
*CONN
*I *2655:Y O *D BUFX2
*I *2656:R I *L 0
*I *2657:R I *L 0
*I *2658:R I *L 0
*I *2659:R I *L 0
*I *2660:R I *L 0
*I *2661:R I *L 0
*I *2662:R I *L 0
*CAP
1 2654_1 4.92e-05
2 2654_2 4.032e-05
3 2654_3 0.0002448
4 2654_4 0.00013104
5 2654_5 4.08e-05
6 2654_6 0.00012144
7 2654_7 2.04e-05
8 2654_8 0.00026472
9 2654_9 0.0002244
10 2654_10 4.08e-05
11 2654_11 0.00016176
*RES
1 *2655:Y 2654_1 0.7
2 2654_1 2654_2 1.12
3 2654_2 *2656:R 0
4 2654_2 2654_3 2.8
5 2654_3 *2657:R 0
6 2654_1 2654_4 3.64
7 2654_4 2654_5 0.466667
8 2654_5 *2658:R 0
9 2654_4 2654_6 2.70667
10 2654_6 2654_7 0.233333
11 2654_7 *2659:R 0
12 2654_7 2654_8 3.68667
13 2654_8 *2660:R 0
14 2654_8 2654_9 2.56667
15 2654_9 2654_10 0.466667
16 2654_10 *2661:R 0
17 2654_9 2654_11 3.82667
18 2654_11 *2662:R 0
*END
*D_NET *2663 0.00175584
*CONN
*I *2664:Y O *D BUFX2
*I *2665:R I *L 0
*I *2666:R I *L 0
*I *2667:R I *L 0
*I *2668:R I *L 0
*I *2669:R I *L 0
*I *2670:R I *L 0
*I *2671:R I *L 0
*CAP
1 2663_1 2.688e-05
2 2663_2 4.08e-05
3 2663_3 0.00042816
4 2663_4 0.0001344
5 2663_5 0
6 2663_6 0.0002448
7 2663_7 0.00015456
8 2663_8 0.00048144
9 2663_9 0.0002448
*RES
1 *2664:Y 2663_1 0.746667
2 2663_1 2663_2 0.466667
3 2663_2 *2665:R 0
4 2663_1 2663_3 5.22667
5 2663_3 *2666:R 0
6 2663_3 2663_4 3.73333
7 2663_4 2663_5 0
8 2663_5 *2667:R 0
9 2663_5 2663_6 2.8
10 2663_6 *2668:R 0
11 2663_4 2663_7 4.29333
12 2663_7 *2669:R 0
13 2663_7 2663_8 5.50667
14 2663_8 *2670:R 0
15 2663_8 2663_9 2.8
16 2663_9 *2671:R 0
*END
*D_NET *2672 0.0026844
*CONN
*I *2673:Y O *D BUFX2
*I *2674:R I *L 0
*I *2675:R I *L 0
*I *2676:R I *L 0
*I *2677:R I *L 0
*I *2678:R I *L 0
*I *2679:R I *L 0
*I *2680:R I *L 0
*CAP
1 2672_1 4.08e-05
2 2672_2 2.688e-05
3 2672_3 0.00048144
4 2672_4 0.00025584
5 2672_5 6.72e-05
6 2672_6 6.096e-05
7 2672_7 0.0007668
8 2672_8 2.04e-05
9 2672_9 6.72e-05
10 2672_10 0.00024456
11 2672_11 0.00065232
*RES
1 *2673:Y 2672_1 0.466667
2 2672_1 2672_2 0.746667
3 2672_2 *2674:R 0
4 2672_1 2672_3 5.50667
5 2672_3 *2675:R 0
6 2672_3 2672_4 6.44
7 2672_4 2672_5 1.86667
8 2672_5 2672_6 1.02667
9 2672_6 *2676:R 0
10 2672_5 2672_7 9.1
11 2672_7 2672_8 0.233333
12 2672_8 *2677:R 0
13 2672_8 2672_9 1.86667
14 2672_9 *2678:R 0
15 2672_8 2672_10 3.12667
16 2672_10 *2679:R 0
17 2672_4 2672_11 8.12
18 2672_11 *2680:R 0
*END
*D_NET *2681 0.0014844
*CONN
*I *2682:Y O *D BUFX2
*I *2683:R I *L 0
*I *2684:R I *L 0
*I *2685:R I *L 0
*I *2686:R I *L 0
*I *2687:R I *L 0
*I *2688:R I *L 0
*I *2689:R I *L 0
*CAP
1 2681_1 6.096e-05
2 2681_2 1.344e-05
3 2681_3 2.688e-05
4 2681_4 4.704e-05
5 2681_5 0.0002448
6 2681_6 0.000204
7 2681_7 0.00048144
8 2681_8 2.04e-05
9 2681_9 0.00029784
10 2681_10 2.04e-05
11 2681_11 6.72e-05
*RES
1 *2682:Y 2681_1 1.02667
2 2681_1 2681_2 0.373333
3 2681_2 *2683:R 0
4 2681_2 2681_3 0.746667
5 2681_3 2681_4 1.30667
6 2681_4 *2684:R 0
7 2681_3 2681_5 2.8
8 2681_5 *2685:R 0
9 2681_1 2681_6 2.33333
10 2681_6 *2686:R 0
11 2681_6 2681_7 5.50667
12 2681_7 2681_8 0.233333
13 2681_8 *2687:R 0
14 2681_8 2681_9 3.40667
15 2681_9 2681_10 0.233333
16 2681_10 *2688:R 0
17 2681_10 2681_11 1.86667
18 2681_11 *2689:R 0
*END
*D_NET *2690 0.00513432
*CONN
*I *2691:Y O *D _2009
*I *2692:A I *L 0
*I *2693:A I *L 0
*I *2694:A I *L 0
*I *2695:A I *L 0
*I *2696:A I *L 0
*I *2697:A I *L 0
*I *2698:A I *L 0
*CAP
1 2690_1 8.64e-05
2 2690_2 0.00191784
3 2690_3 2.04e-05
4 2690_4 0.00091344
5 2690_5 5.76e-05
6 2690_6 0.0008916
7 2690_7 2.04e-05
8 2690_8 0.000294
9 2690_9 2.016e-05
10 2690_10 0.00048888
11 2690_11 2.04e-05
12 2690_12 0.0004032
*RES
1 *2691:Y 2690_1 0.56
2 2690_1 *2692:A 0
3 2690_1 2690_2 18.4733
4 2690_2 2690_3 0.233333
5 2690_3 *2693:A 0
6 2690_3 2690_4 10.3067
7 2690_4 2690_5 0.373333
8 2690_5 *2694:A 0
9 2690_4 2690_6 11.5
10 2690_6 2690_7 0.233333
11 2690_7 *2695:A 0
12 2690_7 2690_8 3.5
13 2690_8 2690_9 0.56
14 2690_9 *2696:A 0
15 2690_8 2690_10 6.58
16 2690_10 2690_11 0.233333
17 2690_11 *2697:A 0
18 2690_11 2690_12 11.2
19 2690_12 *2698:A 0
*END
*D_NET *2699 0.00188736
*CONN
*I *2700:Y O *D _2012
*I *2701:A I *L 0
*I *2702:A I *L 0
*I *2703:A I *L 0
*I *2704:A I *L 0
*I *2705:A I *L 0
*I *2706:A I *L 0
*I *2707:A I *L 0
*CAP
1 2699_1 8.4e-06
2 2699_2 8.76e-05
3 2699_3 4.08e-05
4 2699_4 0.00020232
5 2699_5 0.000102
6 2699_6 0.00021552
7 2699_7 6.12e-05
8 2699_8 0.00049728
9 2699_9 0.0001224
10 2699_10 0.00012096
11 2699_11 6.12e-05
12 2699_12 0.00012168
13 2699_13 0.000246
*RES
1 *2700:Y 2699_1 0.233333
2 2699_1 2699_2 2.1
3 2699_2 2699_3 0.466667
4 2699_3 *2701:A 0
5 2699_2 2699_4 4.62
6 2699_4 2699_5 1.16667
7 2699_5 *2702:A 0
8 2699_4 2699_6 5.32
9 2699_6 2699_7 0.7
10 2699_7 *2703:A 0
11 2699_6 2699_8 13.8133
12 2699_8 2699_9 1.4
13 2699_9 *2704:A 0
14 2699_8 2699_10 3.36
15 2699_10 2699_11 0.7
16 2699_11 *2705:A 0
17 2699_10 2699_12 2.38
18 2699_12 *2706:A 0
19 2699_1 2699_13 5.83333
20 2699_13 *2707:A 0
*END
*D_NET *2708 0.00246
*CONN
*I *2709:Y O *D _2015
*I *2710:A I *L 0
*I *2711:A I *L 0
*I *2712:A I *L 0
*I *2713:A I *L 0
*I *2714:A I *L 0
*I *2715:A I *L 0
*I *2716:A I *L 0
*CAP
1 2708_1 2.04e-05
2 2708_2 0.000156
3 2708_3 0.0001956
4 2708_4 1.344e-05
5 2708_5 3.36e-05
6 2708_6 0.000402
7 2708_7 2.688e-05
8 2708_8 0.00024576
9 2708_9 2.04e-05
10 2708_10 0.00044856
11 2708_11 0.0004284
12 2708_12 2.04e-05
13 2708_13 0.00044856
*RES
1 *2709:Y 2708_1 0.233333
2 2708_1 2708_2 2.33333
3 2708_2 *2710:A 0
4 2708_1 2708_3 4.43333
5 2708_3 2708_4 0.373333
6 2708_4 2708_5 0.933333
7 2708_5 *2711:A 0
8 2708_4 2708_6 2.96667
9 2708_6 2708_7 0.746667
10 2708_7 *2712:A 0
11 2708_6 2708_8 6.16
12 2708_8 2708_9 0.233333
13 2708_9 *2713:A 0
14 2708_9 2708_10 5.46
15 2708_10 *2714:A 0
16 2708_3 2708_11 4.9
17 2708_11 2708_12 0.233333
18 2708_12 *2715:A 0
19 2708_12 2708_13 5.46
20 2708_13 *2716:A 0
*END
*D_NET *2717 0.00402288
*CONN
*I *2718:Y O *D _2018
*I *2719:A I *L 0
*I *2720:A I *L 0
*I *2721:A I *L 0
*I *2722:A I *L 0
*I *2723:A I *L 0
*I *2724:A I *L 0
*I *2725:A I *L 0
*CAP
1 2717_1 0.00128064
2 2717_2 0.00014856
3 2717_3 0.0001536
4 2717_4 2.688e-05
5 2717_5 0.0002676
6 2717_6 0.0002088
7 2717_7 0.00027864
8 2717_8 0.00042984
9 2717_9 0.00078048
10 2717_10 2.04e-05
11 2717_11 0.00014232
12 2717_12 0.00010848
13 2717_13 0.00017664
*RES
1 *2718:Y 2717_1 10.9733
2 2717_1 2717_2 3.12667
3 2717_2 *2719:A 0
4 2717_1 2717_3 1.06667
5 2717_3 2717_4 0.746667
6 2717_4 *2720:A 0
7 2717_3 2717_5 2.03333
8 2717_5 2717_6 5.13333
9 2717_6 *2721:A 0
10 2717_5 2717_7 3.40667
11 2717_7 2717_8 7.04667
12 2717_8 *2722:A 0
13 2717_7 2717_9 7.08
14 2717_9 2717_10 0.233333
15 2717_10 *2723:A 0
16 2717_10 2717_11 2.28667
17 2717_11 2717_12 1.68
18 2717_12 *2724:A 0
19 2717_11 2717_13 1.50667
20 2717_13 *2725:A 0
*END
*D_NET *2726 0.00352824
*CONN
*I *2727:Y O *D _2021
*I *2728:A I *L 0
*I *2729:A I *L 0
*I *2730:A I *L 0
*I *2731:A I *L 0
*I *2732:A I *L 0
*I *2733:A I *L 0
*I *2734:A I *L 0
*CAP
1 2726_1 0.00073488
2 2726_2 4.704e-05
3 2726_3 0.0008292
4 2726_4 6.72e-05
5 2726_5 0.00079752
6 2726_6 2.04e-05
7 2726_7 0.0001716
8 2726_8 0.00012096
9 2726_9 0
10 2726_10 0.00031248
11 2726_11 0.0003528
12 2726_12 2.04e-05
13 2726_13 5.376e-05
*RES
1 *2727:Y 2726_1 6.21333
2 2726_1 2726_2 1.30667
3 2726_2 *2728:A 0
4 2726_1 2726_3 8.03333
5 2726_3 2726_4 1.86667
6 2726_4 *2729:A 0
7 2726_3 2726_5 7.75333
8 2726_5 2726_6 0.233333
9 2726_6 *2730:A 0
10 2726_6 2726_7 2.1
11 2726_7 2726_8 3.36
12 2726_8 2726_9 0
13 2726_9 *2731:A 0
14 2726_9 2726_10 4.01333
15 2726_10 *2732:A 0
16 2726_7 2726_11 5.13333
17 2726_11 2726_12 0.233333
18 2726_12 *2733:A 0
19 2726_12 2726_13 1.49333
20 2726_13 *2734:A 0
*END
*D_NET *2735 0.00423168
*CONN
*I *2736:Y O *D _2024
*I *2737:A I *L 0
*I *2738:A I *L 0
*I *2739:A I *L 0
*I *2740:A I *L 0
*I *2741:A I *L 0
*I *2742:A I *L 0
*I *2743:A I *L 0
*CAP
1 2735_1 9e-05
2 2735_2 0.0001284
3 2735_3 0.0002964
4 2735_4 0.00016296
5 2735_5 0.00041856
6 2735_6 8.16e-05
7 2735_7 0.00223224
8 2735_8 8.16e-05
9 2735_9 0.00027528
10 2735_10 1.344e-05
11 2735_11 0.00025536
12 2735_12 0
13 2735_13 0.00019584
*RES
1 *2736:Y 2735_1 1.16667
2 2735_1 2735_2 2.56667
3 2735_2 *2737:A 0
4 2735_1 2735_3 2.23333
5 2735_3 2735_4 2.19333
6 2735_4 *2738:A 0
7 2735_3 2735_5 5.42667
8 2735_5 2735_6 0.933333
9 2735_6 *2739:A 0
10 2735_5 2735_7 27.14
11 2735_7 2735_8 0.933333
12 2735_8 *2740:A 0
13 2735_7 2735_9 2.64667
14 2735_9 2735_10 0.373333
15 2735_10 *2741:A 0
16 2735_9 2735_11 7.09333
17 2735_11 2735_12 0
18 2735_12 *2742:A 0
19 2735_12 2735_13 2.24
20 2735_13 *2743:A 0
*END
*D_NET *2744 0.0039168
*CONN
*I *2745:Y O *D _2027
*I *2746:A I *L 0
*I *2747:A I *L 0
*I *2748:A I *L 0
*I *2749:A I *L 0
*I *2750:A I *L 0
*I *2751:A I *L 0
*I *2752:A I *L 0
*CAP
1 2744_1 0.0005964
2 2744_2 0.00018192
3 2744_3 0.0001428
4 2744_4 0.0008556
5 2744_5 3.264e-05
6 2744_6 0.00023064
7 2744_7 2.04e-05
8 2744_8 5.376e-05
9 2744_9 0
10 2744_10 0.00075
11 2744_11 0.00034128
12 2744_12 0.00012192
13 2744_13 0.00058944
*RES
1 *2745:Y 2744_1 6.67333
2 2744_1 2744_2 4.38667
3 2744_2 2744_3 1.63333
4 2744_3 *2746:A 0
5 2744_2 2744_4 20.7667
6 2744_4 2744_5 0.373333
7 2744_5 *2747:A 0
8 2744_4 2744_6 3.40667
9 2744_6 2744_7 0.233333
10 2744_7 *2748:A 0
11 2744_7 2744_8 1.49333
12 2744_8 2744_9 0
13 2744_9 *2749:A 0
14 2744_8 2744_10 15.1667
15 2744_10 *2750:A 0
16 2744_1 2744_11 3.28
17 2744_11 2744_12 2.05333
18 2744_12 *2751:A 0
19 2744_11 2744_13 11.04
20 2744_13 *2752:A 0
*END
*D_NET *2753 0.00730392
*CONN
*I *2754:Y O *D _2030
*I *2755:A I *L 0
*I *2756:A I *L 0
*I *2757:A I *L 0
*I *2758:A I *L 0
*I *2759:A I *L 0
*I *2760:A I *L 0
*I *2761:A I *L 0
*CAP
1 2753_1 0.00084384
2 2753_2 4.032e-05
3 2753_3 0.00216456
4 2753_4 0.00020328
5 2753_5 0.0004428
6 2753_6 0.00057888
7 2753_7 3.84e-05
8 2753_8 0.00036384
9 2753_9 0.00093408
10 2753_10 0.0003468
11 2753_11 0.00047904
12 2753_12 9.456e-05
13 2753_13 0.00077352
*RES
1 *2754:Y 2753_1 11.1067
2 2753_1 2753_2 1.12
3 2753_2 *2755:A 0
4 2753_1 2753_3 26.1267
5 2753_3 2753_4 3.31333
6 2753_4 *2756:A 0
7 2753_3 2753_5 5.7
8 2753_5 2753_6 8.08
9 2753_6 2753_7 0.266667
10 2753_7 *2757:A 0
11 2753_6 2753_8 8.77333
12 2753_8 *2758:A 0
13 2753_5 2753_9 24.5467
14 2753_9 2753_10 3.96667
15 2753_10 *2759:A 0
16 2753_9 2753_11 7.10667
17 2753_11 2753_12 1.96
18 2753_12 *2760:A 0
19 2753_11 2753_13 8.42
20 2753_13 *2761:A 0
*END
*D_NET *2762 0.00479712
*CONN
*I *2763:Y O *D _2033
*I *2764:A I *L 0
*I *2765:A I *L 0
*I *2766:A I *L 0
*I *2767:A I *L 0
*I *2768:A I *L 0
*I *2769:A I *L 0
*I *2770:A I *L 0
*CAP
1 2762_1 0.000804
2 2762_2 7.392e-05
3 2762_3 0.00061152
4 2762_4 0.0003936
5 2762_5 9.456e-05
6 2762_6 0.00100776
7 2762_7 0.000108
8 2762_8 0.000168
9 2762_9 0.00012768
10 2762_10 4.08e-05
11 2762_11 0.00045096
12 2762_12 0.00051936
13 2762_13 0.00039696
*RES
1 *2763:Y 2762_1 9.33333
2 2762_1 2762_2 2.05333
3 2762_2 *2764:A 0
4 2762_1 2762_3 15.5867
5 2762_3 2762_4 2.73333
6 2762_4 2762_5 1.96
7 2762_5 *2765:A 0
8 2762_4 2762_6 7.59333
9 2762_6 2762_7 2.33333
10 2762_7 *2766:A 0
11 2762_6 2762_8 4.66667
12 2762_8 2762_9 3.54667
13 2762_9 2762_10 0.466667
14 2762_10 *2767:A 0
15 2762_9 2762_11 6.3
16 2762_11 *2768:A 0
17 2762_8 2762_12 4.76
18 2762_12 *2769:A 0
19 2762_3 2762_13 10.36
20 2762_13 *2770:A 0
*END
*D_NET *2771 0.00490416
*CONN
*I *2772:Y O *D _2036
*I *2773:A I *L 0
*I *2774:A I *L 0
*I *2775:A I *L 0
*I *2776:A I *L 0
*I *2777:A I *L 0
*I *2778:A I *L 0
*I *2779:A I *L 0
*CAP
1 2771_1 0.00058464
2 2771_2 0.00043968
3 2771_3 0.00032736
4 2771_4 0
5 2771_5 0.00106584
6 2771_6 2.04e-05
7 2771_7 0.00088272
8 2771_8 0.00018216
9 2771_9 0.00022944
10 2771_10 2.04e-05
11 2771_11 3.36e-05
12 2771_12 0.00022848
13 2771_13 0.00088944
*RES
1 *2772:Y 2771_1 16.24
2 2771_1 2771_2 8.21333
3 2771_2 *2773:A 0
4 2771_1 2771_3 2.69333
5 2771_3 2771_4 0
6 2771_4 *2774:A 0
7 2771_4 2771_5 11.74
8 2771_5 2771_6 0.233333
9 2771_6 *2775:A 0
10 2771_6 2771_7 8.58667
11 2771_7 2771_8 4.06
12 2771_8 *2776:A 0
13 2771_7 2771_9 3.64
14 2771_9 2771_10 0.233333
15 2771_10 *2777:A 0
16 2771_10 2771_11 0.933333
17 2771_11 2771_12 6.34667
18 2771_12 *2778:A 0
19 2771_11 2771_13 10.1733
20 2771_13 *2779:A 0
*END
*D_NET *2780 0.006144
*CONN
*I *2781:Y O *D _2039
*I *2782:A I *L 0
*I *2783:A I *L 0
*I *2784:A I *L 0
*I *2785:A I *L 0
*I *2786:A I *L 0
*I *2787:A I *L 0
*I *2788:A I *L 0
*CAP
1 2780_1 0.00068832
2 2780_2 6.12e-05
3 2780_3 0.0005652
4 2780_4 2.04e-05
5 2780_5 0.00056112
6 2780_6 2.04e-05
7 2780_7 0.00083928
8 2780_8 2.016e-05
9 2780_9 0.00076584
10 2780_10 9.408e-05
11 2780_11 0.00172152
12 2780_12 4.08e-05
13 2780_13 0.00074568
*RES
1 *2781:Y 2780_1 11.5867
2 2780_1 2780_2 0.7
3 2780_2 *2782:A 0
4 2780_1 2780_3 11.9
5 2780_3 2780_4 0.233333
6 2780_4 *2783:A 0
7 2780_4 2780_5 5.65333
8 2780_5 2780_6 0.233333
9 2780_6 *2784:A 0
10 2780_6 2780_7 18.6467
11 2780_7 2780_8 0.56
12 2780_8 *2785:A 0
13 2780_7 2780_9 10.74
14 2780_9 2780_10 2.61333
15 2780_10 *2786:A 0
16 2780_9 2780_11 31.0867
17 2780_11 2780_12 0.466667
18 2780_12 *2787:A 0
19 2780_11 2780_13 11.7133
20 2780_13 *2788:A 0
*END
*D_NET *2789 0.00610104
*CONN
*I *2790:Y O *D _2042
*I *2791:A I *L 0
*I *2792:A I *L 0
*I *2793:A I *L 0
*I *2794:A I *L 0
*I *2795:A I *L 0
*I *2796:A I *L 0
*I *2797:A I *L 0
*CAP
1 2789_1 0.00026448
2 2789_2 2.04e-05
3 2789_3 0.0023424
4 2789_4 0.00012192
5 2789_5 0.00028296
6 2789_6 2.04e-05
7 2789_7 0.00100824
8 2789_8 0.00017544
9 2789_9 0.00089544
10 2789_10 2.04e-05
11 2789_11 0.0005352
12 2789_12 2.04e-05
13 2789_13 0.00039336
*RES
1 *2790:Y 2789_1 4.01333
2 2789_1 2789_2 0.233333
3 2789_2 *2791:A 0
4 2789_2 2789_3 25.6667
5 2789_3 2789_4 2.05333
6 2789_4 *2792:A 0
7 2789_3 2789_5 6.86
8 2789_5 2789_6 0.233333
9 2789_6 *2793:A 0
10 2789_6 2789_7 14.14
11 2789_7 2789_8 2.00667
12 2789_8 *2794:A 0
13 2789_7 2789_9 13.2067
14 2789_9 2789_10 0.233333
15 2789_10 *2795:A 0
16 2789_10 2789_11 7
17 2789_11 2789_12 0.233333
18 2789_12 *2796:A 0
19 2789_12 2789_13 5.92667
20 2789_13 *2797:A 0
*END
*D_NET *2798 0.00345048
*CONN
*I *2799:Y O *D _2045
*I *2800:A I *L 0
*I *2801:A I *L 0
*I *2802:A I *L 0
*I *2803:A I *L 0
*I *2804:A I *L 0
*I *2805:A I *L 0
*I *2806:A I *L 0
*CAP
1 2798_1 0.00051024
2 2798_2 0.0001932
3 2798_3 0.00053088
4 2798_4 0.000102
5 2798_5 0.00065088
6 2798_6 2.04e-05
7 2798_7 5.76e-05
8 2798_8 0.000474
9 2798_9 2.04e-05
10 2798_10 0.00078312
11 2798_11 2.04e-05
12 2798_12 8.736e-05
*RES
1 *2799:Y 2798_1 5.97333
2 2798_1 2798_2 2.47333
3 2798_2 *2800:A 0
4 2798_1 2798_3 14.7467
5 2798_3 2798_4 1.16667
6 2798_4 *2801:A 0
7 2798_3 2798_5 10.08
8 2798_5 2798_6 0.233333
9 2798_6 *2802:A 0
10 2798_6 2798_7 0.373333
11 2798_7 *2803:A 0
12 2798_6 2798_8 8.16667
13 2798_8 2798_9 0.233333
14 2798_9 *2804:A 0
15 2798_9 2798_10 9.75333
16 2798_10 2798_11 0.233333
17 2798_11 *2805:A 0
18 2798_11 2798_12 2.42667
19 2798_12 *2806:A 0
*END
*D_NET *2807 0.00466536
*CONN
*I *2808:Y O *D _2048
*I *2809:A I *L 0
*I *2810:A I *L 0
*I *2811:A I *L 0
*I *2812:A I *L 0
*I *2813:A I *L 0
*I *2814:A I *L 0
*I *2815:A I *L 0
*CAP
1 2807_1 0.00044328
2 2807_2 4.032e-05
3 2807_3 0.00061536
4 2807_4 0.00037248
5 2807_5 0
6 2807_6 0.0005496
7 2807_7 0.00045024
8 2807_8 0
9 2807_9 0.00087456
10 2807_10 4.704e-05
11 2807_11 0.00020544
12 2807_12 4.08e-05
13 2807_13 0.00102624
*RES
1 *2808:Y 2807_1 3.91333
2 2807_1 2807_2 1.12
3 2807_2 *2809:A 0
4 2807_1 2807_3 4.69333
5 2807_3 2807_4 4.54667
6 2807_4 2807_5 0
7 2807_5 *2810:A 0
8 2807_4 2807_6 7.93333
9 2807_6 *2811:A 0
10 2807_3 2807_7 12.5067
11 2807_7 2807_8 0
12 2807_8 *2812:A 0
13 2807_7 2807_9 6.49333
14 2807_9 2807_10 1.30667
15 2807_10 *2813:A 0
16 2807_9 2807_11 1.70667
17 2807_11 2807_12 0.466667
18 2807_12 *2814:A 0
19 2807_11 2807_13 20.04
20 2807_13 *2815:A 0
*END
*D_NET *2816 0.0029208
*CONN
*I *2817:Y O *D _2051
*I *2818:A I *L 0
*I *2819:A I *L 0
*I *2820:A I *L 0
*I *2821:A I *L 0
*I *2822:A I *L 0
*I *2823:A I *L 0
*I *2824:A I *L 0
*CAP
1 2816_1 8.64e-05
2 2816_2 0.00064056
3 2816_3 2.04e-05
4 2816_4 0.00062184
5 2816_5 2.04e-05
6 2816_6 0.00053904
7 2816_7 1.344e-05
8 2816_8 6.12e-05
9 2816_9 0.00028296
10 2816_10 2.04e-05
11 2816_11 0.00033864
12 2816_12 0.00027552
*RES
1 *2817:Y 2816_1 0.56
2 2816_1 *2818:A 0
3 2816_1 2816_2 14.7933
4 2816_2 2816_3 0.233333
5 2816_3 *2819:A 0
6 2816_3 2816_4 12.2733
7 2816_4 2816_5 0.233333
8 2816_5 *2820:A 0
9 2816_5 2816_6 12.9733
10 2816_6 2816_7 0.373333
11 2816_7 2816_8 0.7
12 2816_8 *2821:A 0
13 2816_7 2816_9 6.86
14 2816_9 2816_10 0.233333
15 2816_10 *2822:A 0
16 2816_10 2816_11 3.87333
17 2816_11 *2823:A 0
18 2816_6 2816_12 3.12
19 2816_12 *2824:A 0
*END
*D_NET *2825 0.00484992
*CONN
*I *2826:Y O *D _2054
*I *2827:A I *L 0
*I *2828:A I *L 0
*I *2829:A I *L 0
*I *2830:A I *L 0
*I *2831:A I *L 0
*I *2832:A I *L 0
*I *2833:A I *L 0
*CAP
1 2825_1 0.00046464
2 2825_2 0.0005604
3 2825_3 2.04e-05
4 2825_4 0.00180576
5 2825_5 0.00021
6 2825_6 0.0005508
7 2825_7 2.04e-05
8 2825_8 0.0003552
9 2825_9 0.00019608
10 2825_10 0.00015456
11 2825_11 0.000102
12 2825_12 0.00040968
*RES
1 *2826:Y 2825_1 9.10667
2 2825_1 *2827:A 0
3 2825_1 2825_2 5.96667
4 2825_2 2825_3 0.233333
5 2825_3 *2828:A 0
6 2825_3 2825_4 19.2933
7 2825_4 2825_5 3.5
8 2825_5 *2829:A 0
9 2825_4 2825_6 6.3
10 2825_6 2825_7 0.233333
11 2825_7 *2830:A 0
12 2825_7 2825_8 4.2
13 2825_8 2825_9 3.78
14 2825_9 *2831:A 0
15 2825_8 2825_10 4.29333
16 2825_10 2825_11 1.16667
17 2825_11 *2832:A 0
18 2825_10 2825_12 7.04667
19 2825_12 *2833:A 0
*END
*D_NET *2834 0.00378216
*CONN
*I *2835:Y O *D _2057
*I *2836:A I *L 0
*I *2837:A I *L 0
*I *2838:A I *L 0
*I *2839:A I *L 0
*I *2840:A I *L 0
*I *2841:A I *L 0
*I *2842:A I *L 0
*CAP
1 2834_1 6.6e-05
2 2834_2 9.744e-05
3 2834_3 0.00044136
4 2834_4 4.08e-05
5 2834_5 5.376e-05
6 2834_6 0.00014112
7 2834_7 0.00013488
8 2834_8 0.00026016
9 2834_9 0.000384
10 2834_10 0.00057768
11 2834_11 0.0007788
12 2834_12 0.000102
13 2834_13 0.00070416
*RES
1 *2835:Y 2834_1 0.606667
2 2834_1 2834_2 2.70667
3 2834_2 *2836:A 0
4 2834_1 2834_3 5.92667
5 2834_3 2834_4 0.466667
6 2834_4 *2837:A 0
7 2834_3 2834_5 1.49333
8 2834_5 2834_6 3.92
9 2834_6 2834_7 3.08
10 2834_7 *2838:A 0
11 2834_6 2834_8 2.96
12 2834_8 *2839:A 0
13 2834_5 2834_9 2.66667
14 2834_9 2834_10 6.64667
15 2834_10 *2840:A 0
16 2834_9 2834_11 17.9667
17 2834_11 2834_12 1.16667
18 2834_12 *2841:A 0
19 2834_11 2834_13 11.4933
20 2834_13 *2842:A 0
*END
*D_NET *2843 0.00512568
*CONN
*I *2844:Y O *D _2060
*I *2845:A I *L 0
*I *2846:A I *L 0
*I *2847:A I *L 0
*I *2848:A I *L 0
*I *2849:A I *L 0
*I *2850:A I *L 0
*I *2851:A I *L 0
*CAP
1 2843_1 0.000102
2 2843_2 0.00038688
3 2843_3 0.00022848
4 2843_4 9.456e-05
5 2843_5 0.00100992
6 2843_6 0.0001344
7 2843_7 5.184e-05
8 2843_8 0.0012048
9 2843_9 0.00060864
10 2843_10 0.000588
11 2843_11 0.0002172
12 2843_12 0.00015504
13 2843_13 0.00034392
*RES
1 *2844:Y 2843_1 1.16667
2 2843_1 2843_2 5.41333
3 2843_2 *2845:A 0
4 2843_1 2843_3 6.34667
5 2843_3 2843_4 1.96
6 2843_4 *2846:A 0
7 2843_3 2843_5 7.85333
8 2843_5 2843_6 0.933333
9 2843_6 2843_7 0.64
10 2843_7 *2847:A 0
11 2843_6 2843_8 10.4667
12 2843_8 2843_9 13.64
13 2843_9 *2848:A 0
14 2843_8 2843_10 16.3333
15 2843_10 2843_11 3.03333
16 2843_11 *2849:A 0
17 2843_10 2843_12 1.77333
18 2843_12 *2850:A 0
19 2843_5 2843_13 7.88667
20 2843_13 *2851:A 0
*END
*D_NET *2852 0.00532008
*CONN
*I *2853:Y O *D _2063
*I *2854:A I *L 0
*I *2855:A I *L 0
*I *2856:A I *L 0
*I *2857:A I *L 0
*I *2858:A I *L 0
*I *2859:A I *L 0
*I *2860:A I *L 0
*CAP
1 2852_1 0.00010128
2 2852_2 2.04e-05
3 2852_3 0.00097104
4 2852_4 2.04e-05
5 2852_5 0.0012684
6 2852_6 2.04e-05
7 2852_7 0.0007836
8 2852_8 6.048e-05
9 2852_9 0.0004596
10 2852_10 0.0002304
11 2852_11 0.00132648
12 2852_12 5.76e-05
*RES
1 *2853:Y 2852_1 2.14667
2 2852_1 2852_2 0.233333
3 2852_2 *2854:A 0
4 2852_2 2852_3 12.9733
5 2852_3 2852_4 0.233333
6 2852_4 *2855:A 0
7 2852_4 2852_5 19.8333
8 2852_5 2852_6 0.233333
9 2852_6 *2856:A 0
10 2852_6 2852_7 8.7
11 2852_7 2852_8 1.68
12 2852_8 *2857:A 0
13 2852_7 2852_9 3.36667
14 2852_9 2852_10 3.73333
15 2852_10 *2858:A 0
16 2852_9 2852_11 17.5133
17 2852_11 *2859:A 0
18 2852_11 2852_12 0.373333
19 2852_12 *2860:A 0
*END
*D_NET *2861 0.00435768
*CONN
*I *2862:Y O *D _2066
*I *2863:A I *L 0
*I *2864:A I *L 0
*I *2865:A I *L 0
*I *2866:A I *L 0
*I *2867:A I *L 0
*I *2868:A I *L 0
*I *2869:A I *L 0
*CAP
1 2861_1 0.00031128
2 2861_2 0.00010752
3 2861_3 0.0005796
4 2861_4 2.04e-05
5 2861_5 0.00048144
6 2861_6 2.04e-05
7 2861_7 0.00075384
8 2861_8 0
9 2861_9 0.00045408
10 2861_10 2.016e-05
11 2861_11 0.00099864
12 2861_12 2.04e-05
13 2861_13 0.00058992
*RES
1 *2862:Y 2861_1 5.64667
2 2861_1 2861_2 2.98667
3 2861_2 *2863:A 0
4 2861_1 2861_3 6.76667
5 2861_3 2861_4 0.233333
6 2861_4 *2864:A 0
7 2861_4 2861_5 5.50667
8 2861_5 2861_6 0.233333
9 2861_6 *2865:A 0
10 2861_6 2861_7 8.14
11 2861_7 2861_8 0
12 2861_8 *2866:A 0
13 2861_7 2861_9 4.41333
14 2861_9 2861_10 0.56
15 2861_10 *2867:A 0
16 2861_9 2861_11 11.8733
17 2861_11 2861_12 0.233333
18 2861_12 *2868:A 0
19 2861_12 2861_13 9.05333
20 2861_13 *2869:A 0
*END
*D_NET *2870 0.00567432
*CONN
*I *2871:Y O *D _2069
*I *2872:A I *L 0
*I *2873:A I *L 0
*I *2874:A I *L 0
*I *2875:A I *L 0
*I *2876:A I *L 0
*I *2877:A I *L 0
*I *2878:A I *L 0
*CAP
1 2870_1 0.0006852
2 2870_2 0
3 2870_3 0.00322056
4 2870_4 2.04e-05
5 2870_5 0.000462
6 2870_6 0
7 2870_7 0.0004608
8 2870_8 0
9 2870_9 0.0004824
10 2870_10 2.04e-05
11 2870_11 0.00022848
12 2870_12 0
13 2870_13 9.408e-05
*RES
1 *2871:Y 2870_1 10.0333
2 2870_1 2870_2 0
3 2870_2 *2872:A 0
4 2870_2 2870_3 39.3267
5 2870_3 2870_4 0.233333
6 2870_4 *2873:A 0
7 2870_4 2870_5 5.83333
8 2870_5 2870_6 0
9 2870_6 *2874:A 0
10 2870_5 2870_7 4.6
11 2870_7 2870_8 0
12 2870_8 *2875:A 0
13 2870_8 2870_9 6.06667
14 2870_9 2870_10 0.233333
15 2870_10 *2876:A 0
16 2870_10 2870_11 6.34667
17 2870_11 2870_12 0
18 2870_12 *2877:A 0
19 2870_11 2870_13 2.61333
20 2870_13 *2878:A 0
*END
*D_NET *2879 0.00422784
*CONN
*I *2880:Y O *D _2072
*I *2881:A I *L 0
*I *2882:A I *L 0
*I *2883:A I *L 0
*I *2884:A I *L 0
*I *2885:A I *L 0
*I *2886:A I *L 0
*I *2887:A I *L 0
*CAP
1 2879_1 0.00045264
2 2879_2 2.04e-05
3 2879_3 0.00022176
4 2879_4 0
5 2879_5 0.00042048
6 2879_6 4.08e-05
7 2879_7 0.00012096
8 2879_8 0.0002772
9 2879_9 0.00064416
10 2879_10 2.04e-05
11 2879_11 0.00091512
12 2879_12 0.00018
13 2879_13 0.00091392
*RES
1 *2880:Y 2879_1 9.24
2 2879_1 2879_2 0.233333
3 2879_2 *2881:A 0
4 2879_2 2879_3 6.16
5 2879_3 2879_4 0
6 2879_4 *2882:A 0
7 2879_3 2879_5 6.28
8 2879_5 2879_6 0.466667
9 2879_6 *2883:A 0
10 2879_5 2879_7 3.36
11 2879_7 2879_8 5.36667
12 2879_8 *2884:A 0
13 2879_7 2879_9 5.62667
14 2879_9 2879_10 0.233333
15 2879_10 *2885:A 0
16 2879_10 2879_11 12.5533
17 2879_11 2879_12 1.77333
18 2879_12 *2886:A 0
19 2879_11 2879_13 18.3867
20 2879_13 *2887:A 0
*END
*D_NET *2888 0.00522336
*CONN
*I *2889:Y O *D _2075
*I *2890:A I *L 0
*I *2891:A I *L 0
*I *2892:A I *L 0
*I *2893:A I *L 0
*I *2894:A I *L 0
*I *2895:A I *L 0
*I *2896:A I *L 0
*CAP
1 2888_1 8.4e-06
2 2888_2 0.00076176
3 2888_3 2.04e-05
4 2888_4 0.00070488
5 2888_5 0.00028344
6 2888_6 0.00048744
7 2888_7 2.04e-05
8 2888_8 0.00024192
9 2888_9 0.00064512
10 2888_10 0.00028344
11 2888_11 0.0003552
12 2888_12 0
13 2888_13 0.00141096
*RES
1 *2889:Y 2888_1 0.233333
2 2888_1 2888_2 17.8267
3 2888_2 2888_3 0.233333
4 2888_3 *2890:A 0
5 2888_3 2888_4 5.91333
6 2888_4 2888_5 6.20667
7 2888_5 *2891:A 0
8 2888_4 2888_6 3.94
9 2888_6 2888_7 0.233333
10 2888_7 *2892:A 0
11 2888_7 2888_8 6.72
12 2888_8 *2893:A 0
13 2888_1 2888_9 17.92
14 2888_9 2888_10 6.20667
15 2888_10 *2894:A 0
16 2888_9 2888_11 2.46667
17 2888_11 2888_12 0
18 2888_12 *2895:A 0
19 2888_12 2888_13 15.5933
20 2888_13 *2896:A 0
*END
*D_NET *2897 0.0037032
*CONN
*I *2898:Y O *D _2078
*I *2899:A I *L 0
*I *2900:A I *L 0
*I *2901:A I *L 0
*I *2902:A I *L 0
*I *2903:A I *L 0
*I *2904:A I *L 0
*I *2905:A I *L 0
*CAP
1 2897_1 0.0001248
2 2897_2 0.00022176
3 2897_3 0.00016272
4 2897_4 0.0004488
5 2897_5 2.016e-05
6 2897_6 0.00051
7 2897_7 0.00029688
8 2897_8 2.04e-05
9 2897_9 0.00056304
10 2897_10 2.04e-05
11 2897_11 0.00032112
12 2897_12 0.00039792
13 2897_13 0.0005952
*RES
1 *2898:Y 2897_1 1.93333
2 2897_1 2897_2 1.96
3 2897_2 2897_3 2.52
4 2897_3 *2899:A 0
5 2897_2 2897_4 5.13333
6 2897_4 2897_5 0.56
7 2897_5 2897_6 5.83333
8 2897_6 *2900:A 0
9 2897_5 2897_7 6.58
10 2897_7 2897_8 0.233333
11 2897_8 *2901:A 0
12 2897_8 2897_9 8.30667
13 2897_9 2897_10 0.233333
14 2897_10 *2902:A 0
15 2897_10 2897_11 6.25333
16 2897_11 *2903:A 0
17 2897_4 2897_12 9.05333
18 2897_12 *2904:A 0
19 2897_1 2897_13 11.5333
20 2897_13 *2905:A 0
*END
*D_NET *2906 0.00371064
*CONN
*I *2907:Y O *D _2081
*I *2908:A I *L 0
*I *2909:A I *L 0
*I *2910:A I *L 0
*I *2911:A I *L 0
*I *2912:A I *L 0
*I *2913:A I *L 0
*I *2914:A I *L 0
*CAP
1 2906_1 4.08e-05
2 2906_2 0.0003516
3 2906_3 2.04e-05
4 2906_4 0.00056352
5 2906_5 2.04e-05
6 2906_6 0.00049392
7 2906_7 0.00045888
8 2906_8 2.04e-05
9 2906_9 0.0001308
10 2906_10 0.00011496
11 2906_11 7.392e-05
12 2906_12 6.12e-05
13 2906_13 0.00135984
*RES
1 *2907:Y 2906_1 0.466667
2 2906_1 2906_2 6.76667
3 2906_2 2906_3 0.233333
4 2906_3 *2908:A 0
5 2906_3 2906_4 6.18667
6 2906_4 2906_5 0.233333
7 2906_5 *2909:A 0
8 2906_5 2906_6 6.92
9 2906_6 *2910:A 0
10 2906_1 2906_7 10.08
11 2906_7 2906_8 0.233333
12 2906_8 *2911:A 0
13 2906_8 2906_9 1.63333
14 2906_9 2906_10 2.19333
15 2906_10 *2912:A 0
16 2906_9 2906_11 2.05333
17 2906_11 2906_12 0.7
18 2906_12 *2913:A 0
19 2906_11 2906_13 15.7067
20 2906_13 *2914:A 0
*END
*D_NET *2915 0.00567288
*CONN
*I *2916:Y O *D _2084
*I *2917:A I *L 0
*I *2918:A I *L 0
*I *2919:A I *L 0
*I *2920:A I *L 0
*I *2921:A I *L 0
*I *2922:A I *L 0
*I *2923:A I *L 0
*CAP
1 2915_1 0.00012768
2 2915_2 0.00101472
3 2915_3 0.00137832
4 2915_4 0
5 2915_5 0.00116304
6 2915_6 0.00018936
7 2915_7 0.00064608
8 2915_8 2.04e-05
9 2915_9 0.00016896
10 2915_10 2.04e-05
11 2915_11 0.0004068
12 2915_12 2.04e-05
13 2915_13 0.00051672
*RES
1 *2916:Y 2915_1 3.54667
2 2915_1 2915_2 24.72
3 2915_2 *2917:A 0
4 2915_1 2915_3 13.8867
5 2915_3 2915_4 0
6 2915_4 *2918:A 0
7 2915_4 2915_5 13.3067
8 2915_5 2915_6 2.19333
9 2915_6 *2919:A 0
10 2915_5 2915_7 16.6133
11 2915_7 2915_8 0.233333
12 2915_8 *2920:A 0
13 2915_8 2915_9 3.36
14 2915_9 2915_10 0.233333
15 2915_10 *2921:A 0
16 2915_10 2915_11 6.3
17 2915_11 2915_12 0.233333
18 2915_12 *2922:A 0
19 2915_12 2915_13 10.1267
20 2915_13 *2923:A 0
*END
*D_NET *2924 0.00294408
*CONN
*I *2925:Y O *D _2087
*I *2926:A I *L 0
*I *2927:A I *L 0
*I *2928:A I *L 0
*I *2929:A I *L 0
*I *2930:A I *L 0
*I *2931:A I *L 0
*I *2932:A I *L 0
*CAP
1 2924_1 4.032e-05
2 2924_2 0
3 2924_3 0.00041352
4 2924_4 5.76e-05
5 2924_5 0.000972
6 2924_6 4.08e-05
7 2924_7 0.000486
8 2924_8 0
9 2924_9 5.376e-05
10 2924_10 0
11 2924_11 0.00046248
12 2924_12 2.04e-05
13 2924_13 0.0003972
*RES
1 *2925:Y 2924_1 1.12
2 2924_1 2924_2 0
3 2924_2 *2926:A 0
4 2924_2 2924_3 6.48667
5 2924_3 2924_4 0.373333
6 2924_4 *2927:A 0
7 2924_3 2924_5 13.2667
8 2924_5 2924_6 0.466667
9 2924_6 *2928:A 0
10 2924_5 2924_7 10.5
11 2924_7 2924_8 0
12 2924_8 *2929:A 0
13 2924_7 2924_9 1.49333
14 2924_9 2924_10 0
15 2924_10 *2930:A 0
16 2924_9 2924_11 4.04667
17 2924_11 2924_12 0.233333
18 2924_12 *2931:A 0
19 2924_12 2924_13 4.1
20 2924_13 *2932:A 0
*END
*D_NET *2933 0.0049536
*CONN
*I *2934:Y O *D _2090
*I *2935:A I *L 0
*I *2936:A I *L 0
*I *2937:A I *L 0
*I *2938:A I *L 0
*I *2939:A I *L 0
*I *2940:A I *L 0
*I *2941:A I *L 0
*CAP
1 2933_1 0.00025536
2 2933_2 0.0001224
3 2933_3 8.064e-05
4 2933_4 0.0004692
5 2933_5 2.04e-05
6 2933_6 0.00061032
7 2933_7 0.00028992
8 2933_8 0
9 2933_9 0.00152736
10 2933_10 0.0002088
11 2933_11 0.0001632
12 2933_12 0.00018192
13 2933_13 0.00102408
*RES
1 *2934:Y 2933_1 7.09333
2 2933_1 2933_2 1.4
3 2933_2 *2935:A 0
4 2933_1 2933_3 2.24
5 2933_3 2933_4 5.36667
6 2933_4 2933_5 0.233333
7 2933_5 *2936:A 0
8 2933_5 2933_6 9.28667
9 2933_6 *2937:A 0
10 2933_3 2933_7 4.25333
11 2933_7 2933_8 0
12 2933_8 *2938:A 0
13 2933_8 2933_9 18.0933
14 2933_9 2933_10 5.13333
15 2933_10 *2939:A 0
16 2933_9 2933_11 1.86667
17 2933_11 2933_12 2.52
18 2933_12 *2940:A 0
19 2933_11 2933_13 11.7133
20 2933_13 *2941:A 0
*END
*D_NET *2942 0.00512544
*CONN
*I *2943:Y O *D _2093
*I *2944:A I *L 0
*I *2945:A I *L 0
*I *2946:A I *L 0
*I *2947:A I *L 0
*I *2948:A I *L 0
*I *2949:A I *L 0
*I *2950:A I *L 0
*CAP
1 2942_1 0.00285912
2 2942_2 0.00017472
3 2942_3 5.76e-05
4 2942_4 0.00046968
5 2942_5 0.00012216
6 2942_6 0.0003876
7 2942_7 1.344e-05
8 2942_8 6.12e-05
9 2942_9 0.00012096
10 2942_10 6.12e-05
11 2942_11 0.00035856
12 2942_12 0.0004392
*RES
1 *2943:Y 2942_1 31.1533
2 2942_1 2942_2 4.85333
3 2942_2 *2944:A 0
4 2942_1 2942_3 0.373333
5 2942_3 *2945:A 0
6 2942_1 2942_4 7.04667
7 2942_4 2942_5 1.72667
8 2942_5 *2946:A 0
9 2942_4 2942_6 3.56667
10 2942_6 2942_7 0.373333
11 2942_7 2942_8 0.7
12 2942_8 *2947:A 0
13 2942_7 2942_9 3.36
14 2942_9 2942_10 0.7
15 2942_10 *2948:A 0
16 2942_9 2942_11 6.62667
17 2942_11 *2949:A 0
18 2942_6 2942_12 8.86667
19 2942_12 *2950:A 0
*END
*D_NET *2951 0.00617832
*CONN
*I *2952:Y O *D _2096
*I *2953:A I *L 0
*I *2954:A I *L 0
*I *2955:A I *L 0
*I *2956:A I *L 0
*I *2957:A I *L 0
*I *2958:A I *L 0
*I *2959:A I *L 0
*CAP
1 2951_1 0.000156
2 2951_2 0
3 2951_3 0.000156
4 2951_4 0.0001836
5 2951_5 2.04e-05
6 2951_6 0.00160872
7 2951_7 0.0002244
8 2951_8 0.00141216
9 2951_9 4.08e-05
10 2951_10 0.00072744
11 2951_11 0.0004536
12 2951_12 0.00012216
13 2951_13 0.00107304
*RES
1 *2952:Y 2951_1 2.33333
2 2951_1 2951_2 0
3 2951_2 *2953:A 0
4 2951_2 2951_3 2.33333
5 2951_3 2951_4 2.1
6 2951_4 2951_5 0.233333
7 2951_5 *2954:A 0
8 2951_5 2951_6 22.1533
9 2951_6 2951_7 2.56667
10 2951_7 *2955:A 0
11 2951_6 2951_8 14.4267
12 2951_8 2951_9 0.466667
13 2951_9 *2956:A 0
14 2951_8 2951_10 13.2067
15 2951_10 *2957:A 0
16 2951_3 2951_11 12.6
17 2951_11 2951_12 1.72667
18 2951_12 *2958:A 0
19 2951_11 2951_13 12.2733
20 2951_13 *2959:A 0
*END
*D_NET *2960 0.0029856
*CONN
*I *2961:Y O *D _2099
*I *2962:A I *L 0
*I *2963:A I *L 0
*I *2964:A I *L 0
*I *2965:A I *L 0
*I *2966:A I *L 0
*I *2967:A I *L 0
*I *2968:A I *L 0
*CAP
1 2960_1 2.04e-05
2 2960_2 0.0003972
3 2960_3 9.024e-05
4 2960_4 0.00014112
5 2960_5 0
6 2960_6 0.00027096
7 2960_7 2.04e-05
8 2960_8 0.00050928
9 2960_9 0.00091488
10 2960_10 8.16e-05
11 2960_11 0.00045312
12 2960_12 8.64e-05
*RES
1 *2961:Y 2960_1 0.233333
2 2960_1 2960_2 8.63333
3 2960_2 2960_3 0.906667
4 2960_3 *2962:A 0
5 2960_2 2960_4 3.92
6 2960_4 2960_5 0
7 2960_5 *2963:A 0
8 2960_5 2960_6 4.52667
9 2960_6 2960_7 0.233333
10 2960_7 *2964:A 0
11 2960_7 2960_8 6.81333
12 2960_8 *2965:A 0
13 2960_1 2960_9 24.08
14 2960_9 2960_10 0.933333
15 2960_10 *2966:A 0
16 2960_9 2960_11 8.58667
17 2960_11 *2967:A 0
18 2960_1 2960_12 0.56
19 2960_12 *2968:A 0
*END
*D_NET *2969 0.00126528
*CONN
*I *2970:Y O *D BUFX2
*I *2971:B I *L 0
*I *2972:B I *L 0
*I *2973:B I *L 0
*I *2974:B I *L 0
*I *2975:B I *L 0
*I *2976:B I *L 0
*CAP
1 2969_1 0.00012888
2 2969_2 0.00016128
3 2969_3 4.08e-05
4 2969_4 8.112e-05
5 2969_5 0.0001152
6 2969_6 0.0004944
7 2969_7 8.4e-06
8 2969_8 1.344e-05
9 2969_9 4.704e-05
10 2969_10 0.00017472
*RES
1 *2970:Y 2969_1 1.91333
2 2969_1 2969_2 4.48
3 2969_2 2969_3 0.466667
4 2969_3 *2971:B 0
5 2969_2 2969_4 1.58667
6 2969_4 *2972:B 0
7 2969_4 2969_5 0.746667
8 2969_5 *2973:B 0
9 2969_1 2969_6 4.13333
10 2969_6 2969_7 0.233333
11 2969_7 2969_8 0.373333
12 2969_8 *2974:B 0
13 2969_7 2969_9 1.30667
14 2969_9 *2975:B 0
15 2969_6 2969_10 2.05333
16 2969_10 *2976:B 0
*END
*D_NET *2977 0.0016944
*CONN
*I *2978:Y O *D BUFX2
*I *2979:B I *L 0
*I *2980:B I *L 0
*I *2981:B I *L 0
*I *2982:B I *L 0
*I *2983:B I *L 0
*I *2984:B I *L 0
*CAP
1 2977_1 0.00029664
2 2977_2 6.12e-05
3 2977_3 5.376e-05
4 2977_4 0.0001224
5 2977_5 0.0002016
6 2977_6 4.032e-05
7 2977_7 0.00018
8 2977_8 0.00020904
9 2977_9 0.0003672
10 2977_10 4.08e-05
11 2977_11 0.00012144
*RES
1 *2978:Y 2977_1 6.90667
2 2977_1 2977_2 0.7
3 2977_2 *2979:B 0
4 2977_1 2977_3 1.49333
5 2977_3 2977_4 1.4
6 2977_4 *2980:B 0
7 2977_3 2977_5 5.6
8 2977_5 2977_6 1.12
9 2977_6 2977_7 1.77333
10 2977_7 *2981:B 0
11 2977_6 2977_8 4.80667
12 2977_8 *2982:B 0
13 2977_5 2977_9 4.2
14 2977_9 2977_10 0.466667
15 2977_10 *2983:B 0
16 2977_9 2977_11 2.70667
17 2977_11 *2984:B 0
*END
*D_NET *2985 0.00159192
*CONN
*I *2986:Y O *D BUFX2
*I *2987:B I *L 0
*I *2988:B I *L 0
*I *2989:B I *L 0
*I *2990:B I *L 0
*I *2991:B I *L 0
*I *2992:B I *L 0
*CAP
1 2985_1 0.0001644
2 2985_2 0.0001224
3 2985_3 2.04e-05
4 2985_4 0.00011424
5 2985_5 9.48e-05
6 2985_6 0
7 2985_7 0.00044136
8 2985_8 0.00019008
9 2985_9 0.000306
10 2985_10 5.76e-05
11 2985_11 8.064e-05
*RES
1 *2986:Y 2985_1 1.16667
2 2985_1 2985_2 1.4
3 2985_2 2985_3 0.233333
4 2985_3 *2987:B 0
5 2985_3 2985_4 3.17333
6 2985_4 *2988:B 0
7 2985_1 2985_5 1.63333
8 2985_5 2985_6 0
9 2985_6 *2989:B 0
10 2985_6 2985_7 5.19333
11 2985_7 2985_8 2.61333
12 2985_8 *2990:B 0
13 2985_7 2985_9 3.5
14 2985_9 2985_10 0.373333
15 2985_10 *2991:B 0
16 2985_9 2985_11 2.24
17 2985_11 *2992:B 0
*END
*D_NET *2993 0.00106776
*CONN
*I *2994:Y O *D BUFX2
*I *2995:B I *L 0
*I *2996:B I *L 0
*I *2997:B I *L 0
*I *2998:B I *L 0
*I *2999:B I *L 0
*I *3000:B I *L 0
*CAP
1 2993_1 8.64e-05
2 2993_2 2.04e-05
3 2993_3 0.0004368
4 2993_4 2.016e-05
5 2993_5 6.048e-05
6 2993_6 0
7 2993_7 6.72e-05
8 2993_8 0.00032928
9 2993_9 0
10 2993_10 4.704e-05
*RES
1 *2994:Y 2993_1 0.56
2 2993_1 *2995:B 0
3 2993_1 2993_2 0.233333
4 2993_2 2993_3 5.13333
5 2993_3 2993_4 0.56
6 2993_4 *2996:B 0
7 2993_3 2993_5 1.68
8 2993_5 2993_6 0
9 2993_6 *2997:B 0
10 2993_5 2993_7 1.86667
11 2993_7 *2998:B 0
12 2993_2 2993_8 4.94667
13 2993_8 2993_9 0
14 2993_9 *2999:B 0
15 2993_8 2993_10 1.30667
16 2993_10 *3000:B 0
*END
*D_NET *3001 0.002676
*CONN
*I *3002:Y O *D BUFX2
*I *3003:B I *L 0
*I *3004:B I *L 0
*I *3005:B I *L 0
*I *3006:B I *L 0
*I *3007:B I *L 0
*I *3008:B I *L 0
*CAP
1 3001_1 0.00032328
2 3001_2 8.64e-05
3 3001_3 0.0002208
4 3001_4 4.08e-05
5 3001_5 0.00140112
6 3001_6 2.04e-05
7 3001_7 0.0003528
8 3001_8 0.0002304
*RES
1 *3002:Y 3001_1 4.84667
2 3001_1 3001_2 0.56
3 3001_2 *3003:B 0
4 3001_2 3001_3 2.24
5 3001_3 *3004:B 0
6 3001_1 3001_4 0.466667
7 3001_4 *3005:B 0
8 3001_1 3001_5 16.8533
9 3001_5 3001_6 0.233333
10 3001_6 *3006:B 0
11 3001_6 3001_7 5.13333
12 3001_7 *3007:B 0
13 3001_7 3001_8 1.49333
14 3001_8 *3008:B 0
*END
*D_NET *3009 0.00143784
*CONN
*I *3010:Y O *D BUFX2
*I *3011:C I *L 0
*I *3012:C I *L 0
*I *3013:C I *L 0
*I *3014:C I *L 0
*I *3015:C I *L 0
*I *3016:C I *L 0
*CAP
1 3009_1 0.00034992
2 3009_2 2.04e-05
3 3009_3 0.00031008
4 3009_4 6.12e-05
5 3009_5 0.0001956
6 3009_6 0.000102
7 3009_7 0.00017592
8 3009_8 2.04e-05
9 3009_9 0.0001428
10 3009_10 3.264e-05
11 3009_11 2.688e-05
*RES
1 *3010:Y 3009_1 7.18667
2 3009_1 3009_2 0.233333
3 3009_2 *3011:C 0
4 3009_2 3009_3 7.28
5 3009_3 3009_4 0.7
6 3009_4 *3012:C 0
7 3009_3 3009_5 4.43333
8 3009_5 3009_6 1.16667
9 3009_6 *3013:C 0
10 3009_5 3009_7 3.22
11 3009_7 3009_8 0.233333
12 3009_8 *3014:C 0
13 3009_8 3009_9 1.63333
14 3009_9 3009_10 0.373333
15 3009_10 *3015:C 0
16 3009_9 3009_11 0.746667
17 3009_11 *3016:C 0
*END
*D_NET *3017 0.00287712
*CONN
*I *3018:Y O *D BUFX2
*I *3019:C I *L 0
*I *3020:C I *L 0
*I *3021:C I *L 0
*I *3022:C I *L 0
*I *3023:C I *L 0
*I *3024:C I *L 0
*CAP
1 3017_1 8.4e-06
2 3017_2 0.0001008
3 3017_3 0.00020328
4 3017_4 0.00125544
5 3017_5 0.0005076
6 3017_6 0
7 3017_7 5.376e-05
8 3017_8 0.00026544
9 3017_9 0.0002856
10 3017_10 2.04e-05
11 3017_11 0.0001764
*RES
1 *3018:Y 3017_1 0.233333
2 3017_1 3017_2 2.8
3 3017_2 3017_3 3.31333
4 3017_3 *3019:C 0
5 3017_2 3017_4 17.8733
6 3017_4 *3020:C 0
7 3017_1 3017_5 9.1
8 3017_5 3017_6 0
9 3017_6 *3021:C 0
10 3017_5 3017_7 1.49333
11 3017_7 3017_8 2.30667
12 3017_8 *3022:C 0
13 3017_7 3017_9 4.26667
14 3017_9 3017_10 0.233333
15 3017_10 *3023:C 0
16 3017_10 3017_11 2.56667
17 3017_11 *3024:C 0
*END
*D_NET *3025 0.00236064
*CONN
*I *3026:Y O *D BUFX2
*I *3027:C I *L 0
*I *3028:C I *L 0
*I *3029:C I *L 0
*I *3030:C I *L 0
*I *3031:C I *L 0
*I *3032:C I *L 0
*CAP
1 3025_1 0.00019344
2 3025_2 0.0001224
3 3025_3 2.04e-05
4 3025_4 3.36e-05
5 3025_5 0.000414
6 3025_6 3.264e-05
7 3025_7 0.00113088
8 3025_8 2.04e-05
9 3025_9 0.00035928
10 3025_10 0
11 3025_11 3.36e-05
*RES
1 *3026:Y 3025_1 3.90667
2 3025_1 3025_2 1.4
3 3025_2 3025_3 0.233333
4 3025_3 *3027:C 0
5 3025_3 3025_4 0.933333
6 3025_4 *3028:C 0
7 3025_1 3025_5 5.83333
8 3025_5 3025_6 0.373333
9 3025_6 *3029:C 0
10 3025_5 3025_7 12.68
11 3025_7 3025_8 0.233333
12 3025_8 *3030:C 0
13 3025_8 3025_9 4.91333
14 3025_9 3025_10 0
15 3025_10 *3031:C 0
16 3025_9 3025_11 0.933333
17 3025_11 *3032:C 0
*END
*D_NET *3033 0.00174336
*CONN
*I *3034:Y O *D BUFX2
*I *3035:C I *L 0
*I *3036:C I *L 0
*I *3037:C I *L 0
*I *3038:C I *L 0
*I *3039:C I *L 0
*I *3040:C I *L 0
*CAP
1 3033_1 0.00022224
2 3033_2 0.0004284
3 3033_3 3.264e-05
4 3033_4 4.92e-05
5 3033_5 5.376e-05
6 3033_6 5.424e-05
7 3033_7 0.000102
8 3033_8 0.00015576
9 3033_9 2.04e-05
10 3033_10 0.00062472
*RES
1 *3034:Y 3033_1 2.70667
2 3033_1 *3035:C 0
3 3033_1 3033_2 4.9
4 3033_2 3033_3 0.373333
5 3033_3 *3036:C 0
6 3033_2 3033_4 0.7
7 3033_4 3033_5 1.49333
8 3033_5 3033_6 0.84
9 3033_6 *3037:C 0
10 3033_5 3033_7 1.16667
11 3033_7 *3038:C 0
12 3033_4 3033_8 2.66
13 3033_8 3033_9 0.233333
14 3033_9 *3039:C 0
15 3033_9 3033_10 8.35333
16 3033_10 *3040:C 0
*END
*D_NET *3041 0.0011496
*CONN
*I *3042:Y O *D BUFX2
*I *3043:C I *L 0
*I *3044:C I *L 0
*I *3045:C I *L 0
*I *3046:C I *L 0
*I *3047:C I *L 0
*I *3048:C I *L 0
*CAP
1 3041_1 0
2 3041_2 4.704e-05
3 3041_3 0.0001224
4 3041_4 2.04e-05
5 3041_5 3.36e-05
6 3041_6 0.00033744
7 3041_7 2.04e-05
8 3041_8 3.36e-05
9 3041_9 0.0002856
10 3041_10 9.384e-05
11 3041_11 0.00015528
*RES
1 *3042:Y 3041_1 0
2 3041_1 3041_2 1.30667
3 3041_2 3041_3 1.4
4 3041_3 3041_4 0.233333
5 3041_4 *3043:C 0
6 3041_4 3041_5 0.933333
7 3041_5 *3044:C 0
8 3041_2 3041_6 7.37333
9 3041_6 3041_7 0.233333
10 3041_7 *3045:C 0
11 3041_7 3041_8 0.933333
12 3041_8 *3046:C 0
13 3041_1 3041_9 3.26667
14 3041_9 3041_10 1.07333
15 3041_10 *3047:C 0
16 3041_9 3041_11 3.31333
17 3041_11 *3048:C 0
*END
*D_NET *3049 0.00178368
*CONN
*I *3050:Y O *D BUFX2
*I *3051:A I *L 0
*I *3052:A I *L 0
*I *3053:A I *L 0
*I *3054:A I *L 0
*I *3055:A I *L 0
*I *3056:A I *L 0
*CAP
1 3049_1 0.00054192
2 3049_2 4.08e-05
3 3049_3 6.72e-05
4 3049_4 4.08e-05
5 3049_5 0.00049992
6 3049_6 2.04e-05
7 3049_7 0.0001896
8 3049_8 0.0001224
9 3049_9 0.00020304
10 3049_10 5.76e-05
*RES
1 *3050:Y 3049_1 9.05333
2 3049_1 3049_2 0.466667
3 3049_2 *3051:A 0
4 3049_1 3049_3 1.86667
5 3049_3 3049_4 0.466667
6 3049_4 *3052:A 0
7 3049_3 3049_5 10.22
8 3049_5 3049_6 0.233333
9 3049_6 *3053:A 0
10 3049_6 3049_7 3.26667
11 3049_7 3049_8 1.4
12 3049_8 *3054:A 0
13 3049_7 3049_9 3.64
14 3049_9 *3055:A 0
15 3049_9 3049_10 0.373333
16 3049_10 *3056:A 0
*END
*D_NET *3057 0.00209904
*CONN
*I *3058:Y O *D BUFX2
*I *3059:A I *L 0
*I *3060:A I *L 0
*I *3061:A I *L 0
*I *3062:A I *L 0
*I *3063:A I *L 0
*I *3064:A I *L 0
*CAP
1 3057_1 8.16e-05
2 3057_2 0.00012216
3 3057_3 0.00024864
4 3057_4 0.00018336
5 3057_5 0.00033288
6 3057_6 2.04e-05
7 3057_7 0.00047352
8 3057_8 0.00010368
9 3057_9 0
10 3057_10 6.72e-05
11 3057_11 0.0004656
*RES
1 *3058:Y 3057_1 0.933333
2 3057_1 3057_2 1.72667
3 3057_2 *3059:A 0
4 3057_1 3057_3 6.90667
5 3057_3 3057_4 2.42667
6 3057_4 *3060:A 0
7 3057_3 3057_5 4.24667
8 3057_5 3057_6 0.233333
9 3057_6 *3061:A 0
10 3057_6 3057_7 5.68667
11 3057_7 3057_8 1.28
12 3057_8 3057_9 0
13 3057_9 *3062:A 0
14 3057_8 3057_10 1.86667
15 3057_10 *3063:A 0
16 3057_7 3057_11 10.2667
17 3057_11 *3064:A 0
*END
*D_NET *3065 0.00178944
*CONN
*I *3066:Y O *D BUFX2
*I *3067:A I *L 0
*I *3068:A I *L 0
*I *3069:A I *L 0
*I *3070:A I *L 0
*I *3071:A I *L 0
*I *3072:A I *L 0
*CAP
1 3065_1 6.768e-05
2 3065_2 0.0002448
3 3065_3 0
4 3065_4 0.000102
5 3065_5 6.72e-05
6 3065_6 6.048e-05
7 3065_7 0.000102
8 3065_8 0.00042
9 3065_9 0.0003468
10 3065_10 0.00037848
*RES
1 *3066:Y 3065_1 1.21333
2 3065_1 3065_2 1.58667
3 3065_2 *3067:A 0
4 3065_1 3065_3 0
5 3065_3 *3068:A 0
6 3065_3 3065_4 1.16667
7 3065_4 3065_5 1.86667
8 3065_5 3065_6 1.68
9 3065_6 3065_7 1.16667
10 3065_7 *3069:A 0
11 3065_6 3065_8 5.13333
12 3065_8 *3070:A 0
13 3065_5 3065_9 3.96667
14 3065_9 *3071:A 0
15 3065_4 3065_10 7.51333
16 3065_10 *3072:A 0
*END
*D_NET *3073 0.00092016
*CONN
*I *3074:Y O *D BUFX2
*I *3075:A I *L 0
*I *3076:A I *L 0
*I *3077:A I *L 0
*I *3078:A I *L 0
*I *3079:A I *L 0
*I *3080:A I *L 0
*CAP
1 3073_1 0.0001296
2 3073_2 8.4e-06
3 3073_3 4.032e-05
4 3073_4 0.00014376
5 3073_5 8.736e-05
6 3073_6 0.0003744
7 3073_7 2.04e-05
8 3073_8 8.4e-06
9 3073_9 4.032e-05
10 3073_10 6.72e-05
*RES
1 *3074:Y 3073_1 0.84
2 3073_1 *3075:A 0
3 3073_1 3073_2 0.233333
4 3073_2 3073_3 1.12
5 3073_3 *3076:A 0
6 3073_2 3073_4 1.59333
7 3073_4 3073_5 2.42667
8 3073_5 *3077:A 0
9 3073_4 3073_6 3.66667
10 3073_6 3073_7 0.233333
11 3073_7 *3078:A 0
12 3073_7 3073_8 0.233333
13 3073_8 3073_9 1.12
14 3073_9 *3079:A 0
15 3073_8 3073_10 1.86667
16 3073_10 *3080:A 0
*END
*D_NET *3081 0.00253536
*CONN
*I *3082:Y O *D BUFX2
*I *3083:A I *L 0
*I *3084:A I *L 0
*I *3085:A I *L 0
*I *3086:A I *L 0
*I *3087:A I *L 0
*I *3088:A I *L 0
*CAP
1 3081_1 0.00109392
2 3081_2 0.00016296
3 3081_3 9.12e-05
4 3081_4 0.000408
5 3081_5 4.08e-05
6 3081_6 8.112e-05
7 3081_7 0
8 3081_8 0.00054288
9 3081_9 2.04e-05
10 3081_10 9.408e-05
*RES
1 *3082:Y 3081_1 12.9867
2 3081_1 3081_2 2.19333
3 3081_2 3081_3 1.30667
4 3081_3 *3083:A 0
5 3081_2 3081_4 4.66667
6 3081_4 3081_5 0.466667
7 3081_5 *3084:A 0
8 3081_4 3081_6 1.58667
9 3081_6 *3085:A 0
10 3081_1 3081_7 0
11 3081_7 *3086:A 0
12 3081_7 3081_8 7.74667
13 3081_8 3081_9 0.233333
14 3081_9 *3087:A 0
15 3081_9 3081_10 2.61333
16 3081_10 *3088:A 0
*END
*D_NET *3089 0.00141888
*CONN
*I *3090:Y O *D BUFX2
*I *3091:D I *L 0
*I *3092:D I *L 0
*I *3093:D I *L 0
*I *3094:D I *L 0
*I *3095:D I *L 0
*I *3096:D I *L 0
*CAP
1 3089_1 4.92e-05
2 3089_2 4.704e-05
3 3089_3 4.08e-05
4 3089_4 0.00043848
5 3089_5 4.704e-05
6 3089_6 0.0001764
7 3089_7 0.0001272
8 3089_8 0.0001944
9 3089_9 0.00011472
10 3089_10 2.04e-05
11 3089_11 0.0001632
*RES
1 *3090:Y 3089_1 0.7
2 3089_1 3089_2 1.30667
3 3089_2 3089_3 0.466667
4 3089_3 *3091:D 0
5 3089_2 3089_4 3.78
6 3089_4 3089_5 1.30667
7 3089_5 *3092:D 0
8 3089_4 3089_6 2.56667
9 3089_6 3089_7 1.02667
10 3089_7 *3093:D 0
11 3089_6 3089_8 4.2
12 3089_8 *3094:D 0
13 3089_1 3089_9 2.52
14 3089_9 3089_10 0.233333
15 3089_10 *3095:D 0
16 3089_10 3089_11 1.86667
17 3089_11 *3096:D 0
*END
*D_NET *3097 0.0023844
*CONN
*I *3098:Y O *D BUFX2
*I *3099:D I *L 0
*I *3100:D I *L 0
*I *3101:D I *L 0
*I *3102:D I *L 0
*I *3103:D I *L 0
*I *3104:D I *L 0
*CAP
1 3097_1 0.00054504
2 3097_2 7.416e-05
3 3097_3 0.0002004
4 3097_4 0.00032448
5 3097_5 0
6 3097_6 0.00011136
7 3097_7 2.04e-05
8 3097_8 0.00035952
9 3097_9 0
10 3097_10 0.00040584
11 3097_11 0.0003432
*RES
1 *3098:Y 3097_1 14.14
2 3097_1 3097_2 1.72667
3 3097_2 3097_3 2.00667
4 3097_3 *3099:D 0
5 3097_2 3097_4 6.34667
6 3097_4 3097_5 0
7 3097_5 *3100:D 0
8 3097_4 3097_6 2.42667
9 3097_6 3097_7 0.233333
10 3097_7 *3101:D 0
11 3097_7 3097_8 5.32
12 3097_8 3097_9 0
13 3097_9 *3102:D 0
14 3097_8 3097_10 7.04667
15 3097_10 *3103:D 0
16 3097_1 3097_11 3.64
17 3097_11 *3104:D 0
*END
*D_NET *3105 0.00230016
*CONN
*I *3106:Y O *D BUFX2
*I *3107:D I *L 0
*I *3108:D I *L 0
*I *3109:D I *L 0
*I *3110:D I *L 0
*I *3111:D I *L 0
*I *3112:D I *L 0
*CAP
1 3105_1 0.00091728
2 3105_2 0.00042504
3 3105_3 0
4 3105_4 0.0003996
5 3105_5 2.04e-05
6 3105_6 0.00019584
7 3105_7 6.12e-05
8 3105_8 4.032e-05
9 3105_9 6.12e-05
10 3105_10 0.00017928
*RES
1 *3106:Y 3105_1 20.8133
2 3105_1 3105_2 9.47333
3 3105_2 3105_3 0
4 3105_3 *3107:D 0
5 3105_2 3105_4 6.03333
6 3105_4 3105_5 0.233333
7 3105_5 *3108:D 0
8 3105_5 3105_6 2.24
9 3105_6 *3109:D 0
10 3105_1 3105_7 0.7
11 3105_7 *3110:D 0
12 3105_1 3105_8 1.12
13 3105_8 3105_9 0.7
14 3105_9 *3111:D 0
15 3105_8 3105_10 2.75333
16 3105_10 *3112:D 0
*END
*D_NET *3113 0.00141048
*CONN
*I *3114:Y O *D BUFX2
*I *3115:D I *L 0
*I *3116:D I *L 0
*I *3117:D I *L 0
*I *3118:D I *L 0
*I *3119:D I *L 0
*I *3120:D I *L 0
*CAP
1 3113_1 8.4e-06
2 3113_2 8.64e-05
3 3113_3 1.344e-05
4 3113_4 0.00011856
5 3113_5 0.00048144
6 3113_6 0.000354
7 3113_7 4.08e-05
8 3113_8 0.00011472
9 3113_9 2.04e-05
10 3113_10 0.00017232
*RES
1 *3114:Y 3113_1 0.233333
2 3113_1 3113_2 0.56
3 3113_2 *3115:D 0
4 3113_1 3113_3 0.373333
5 3113_3 3113_4 1.4
6 3113_4 *3116:D 0
7 3113_3 3113_5 5.50667
8 3113_5 3113_6 4.83333
9 3113_6 3113_7 0.466667
10 3113_7 *3117:D 0
11 3113_6 3113_8 2.52
12 3113_8 *3118:D 0
13 3113_5 3113_9 0.233333
14 3113_9 *3119:D 0
15 3113_1 3113_10 2.89333
16 3113_10 *3120:D 0
*END
*D_NET *3121 0.0024972
*CONN
*I *3122:Y O *D BUFX2
*I *3123:D I *L 0
*I *3124:D I *L 0
*I *3125:D I *L 0
*I *3126:D I *L 0
*I *3127:D I *L 0
*I *3128:D I *L 0
*CAP
1 3121_1 0.0003264
2 3121_2 0.00037296
3 3121_3 4.08e-05
4 3121_4 0.0001152
5 3121_5 0.00016944
6 3121_6 0.00094344
7 3121_7 4.08e-05
8 3121_8 0.00032592
9 3121_9 4.08e-05
10 3121_10 0.00012144
*RES
1 *3122:Y 3121_1 3.73333
2 3121_1 3121_2 10.36
3 3121_2 3121_3 0.466667
4 3121_3 *3123:D 0
5 3121_3 3121_4 0.746667
6 3121_4 *3124:D 0
7 3121_2 3121_5 1.64
8 3121_5 *3125:D 0
9 3121_1 3121_6 13.0733
10 3121_6 3121_7 0.466667
11 3121_7 *3126:D 0
12 3121_6 3121_8 4.38667
13 3121_8 3121_9 0.466667
14 3121_9 *3127:D 0
15 3121_8 3121_10 2.70667
16 3121_10 *3128:D 0
*END
*D_NET *3129 0.00177096
*CONN
*I *3130:Y O *D BUFX2
*I *3131:D I *L 0
*I *3132:D I *L 0
*I *3133:D I *L 0
*I *3134:D I *L 0
*I *3135:D I *L 0
*I *3136:D I *L 0
*CAP
1 3129_1 0
2 3129_2 8.064e-05
3 3129_3 0
4 3129_4 4.032e-05
5 3129_5 0
6 3129_6 0.0008088
7 3129_7 0.0001392
8 3129_8 0.00024216
9 3129_9 2.04e-05
10 3129_10 6.624e-05
11 3129_11 0.0003732
*RES
1 *3130:Y 3129_1 0
2 3129_1 3129_2 2.24
3 3129_2 3129_3 0
4 3129_3 *3131:D 0
5 3129_2 3129_4 1.12
6 3129_4 3129_5 0
7 3129_5 *3132:D 0
8 3129_4 3129_6 9.8
9 3129_6 3129_7 1.30667
10 3129_7 *3133:D 0
11 3129_6 3129_8 4.52667
12 3129_8 3129_9 0.233333
13 3129_9 *3134:D 0
14 3129_9 3129_10 1.30667
15 3129_10 *3135:D 0
16 3129_1 3129_11 5.36667
17 3129_11 *3136:D 0
*END
*D_NET *3137 0.002202
*CONN
*I *3138:Y O *D BUFX2
*I *3139:D I *L 0
*I *3140:D I *L 0
*I *3141:D I *L 0
*I *3142:D I *L 0
*I *3143:D I *L 0
*I *3144:D I *L 0
*CAP
1 3137_1 0.0001224
2 3137_2 4.032e-05
3 3137_3 2.016e-05
4 3137_4 0.00079032
5 3137_5 2.04e-05
6 3137_6 0.0002892
7 3137_7 6.12e-05
8 3137_8 0.00016584
9 3137_9 0.00054984
10 3137_10 2.04e-05
11 3137_11 0.00012192
*RES
1 *3138:Y 3137_1 1.4
2 3137_1 3137_2 1.12
3 3137_2 3137_3 0.56
4 3137_3 *3139:D 0
5 3137_2 3137_4 7.48667
6 3137_4 3137_5 0.233333
7 3137_5 *3140:D 0
8 3137_5 3137_6 2.83333
9 3137_6 3137_7 0.7
10 3137_7 *3141:D 0
11 3137_6 3137_8 2.38
12 3137_8 *3142:D 0
13 3137_1 3137_9 7.60667
14 3137_9 3137_10 0.233333
15 3137_10 *3143:D 0
16 3137_10 3137_11 2.05333
17 3137_11 *3144:D 0
*END
*D_NET *3145 0.00154848
*CONN
*I *3146:Y O *D BUFX2
*I *3147:D I *L 0
*I *3148:D I *L 0
*I *3149:D I *L 0
*I *3150:D I *L 0
*I *3151:D I *L 0
*I *3152:D I *L 0
*CAP
1 3145_1 0.00024192
2 3145_2 0.0001836
3 3145_3 2.04e-05
4 3145_4 6.72e-05
5 3145_5 0.00034272
6 3145_6 0.00018
7 3145_7 0.00035256
8 3145_8 5.76e-05
9 3145_9 8.4e-06
10 3145_10 3.36e-05
11 3145_11 6.048e-05
*RES
1 *3146:Y 3145_1 6.72
2 3145_1 3145_2 2.1
3 3145_2 3145_3 0.233333
4 3145_3 *3147:D 0
5 3145_3 3145_4 1.86667
6 3145_4 *3148:D 0
7 3145_1 3145_5 9.52
8 3145_5 3145_6 1.77333
9 3145_6 *3149:D 0
10 3145_5 3145_7 5.46
11 3145_7 3145_8 0.373333
12 3145_8 *3150:D 0
13 3145_7 3145_9 0.233333
14 3145_9 3145_10 0.933333
15 3145_10 *3151:D 0
16 3145_9 3145_11 1.68
17 3145_11 *3152:D 0
*END
*D_NET *3153 0.00179136
*CONN
*I *3154:Y O *D BUFX2
*I *3155:D I *L 0
*I *3156:D I *L 0
*I *3157:D I *L 0
*I *3158:D I *L 0
*I *3159:D I *L 0
*I *3160:D I *L 0
*CAP
1 3153_1 0.0002244
2 3153_2 8.64e-05
3 3153_3 0.00018
4 3153_4 0.00014136
5 3153_5 0.00018
6 3153_6 0.00022416
7 3153_7 0.0001428
8 3153_8 0.00014472
9 3153_9 0.0001224
10 3153_10 0.00034512
*RES
1 *3154:Y 3153_1 2.56667
2 3153_1 3153_2 0.56
3 3153_2 *3155:D 0
4 3153_1 3153_3 1.77333
5 3153_3 *3156:D 0
6 3153_1 3153_4 3.59333
7 3153_4 3153_5 1.77333
8 3153_5 *3157:D 0
9 3153_4 3153_6 2.89333
10 3153_6 3153_7 1.63333
11 3153_7 *3158:D 0
12 3153_6 3153_8 3.68667
13 3153_8 3153_9 1.4
14 3153_9 *3159:D 0
15 3153_8 3153_10 6.25333
16 3153_10 *3160:D 0
*END
*D_NET *3161 0.0026208
*CONN
*I *3162:Y O *D BUFX2
*I *3163:D I *L 0
*I *3164:D I *L 0
*I *3165:D I *L 0
*I *3166:D I *L 0
*I *3167:D I *L 0
*I *3168:D I *L 0
*CAP
1 3161_1 0.0001836
2 3161_2 6.048e-05
3 3161_3 9.504e-05
4 3161_4 0.00021504
5 3161_5 0.00013464
6 3161_6 0.0007332
7 3161_7 8.16e-05
8 3161_8 0.0001488
9 3161_9 2.04e-05
10 3161_10 0.00041976
11 3161_11 0.00052824
*RES
1 *3162:Y 3161_1 2.1
2 3161_1 3161_2 1.68
3 3161_2 *3163:D 0
4 3161_1 3161_3 1.30667
5 3161_3 3161_4 5.97333
6 3161_4 3161_5 1.54
7 3161_5 3161_6 10.0333
8 3161_6 3161_7 0.933333
9 3161_7 *3164:D 0
10 3161_6 3161_8 2.8
11 3161_8 *3165:D 0
12 3161_5 3161_9 0.233333
13 3161_9 *3166:D 0
14 3161_4 3161_10 5.46
15 3161_10 *3167:D 0
16 3161_3 3161_11 5.14
17 3161_11 *3168:D 0
*END
*D_NET *3169 0.00431304
*CONN
*I *3170:Y O *D _1906
*I *3171:A I *L 0
*I *3172:A I *L 0
*I *3173:A I *L 0
*I *3174:A I *L 0
*I *3175:A I *L 0
*CAP
1 3169_1 0.00083088
2 3169_2 4.08e-05
3 3169_3 0.00110928
4 3169_4 2.04e-05
5 3169_5 0.00108288
6 3169_6 2.04e-05
7 3169_7 0.00106632
8 3169_8 4.08e-05
9 3169_9 0.00010128
*RES
1 *3170:Y 3169_1 13.3467
2 3169_1 3169_2 0.466667
3 3169_2 *3171:A 0
4 3169_1 3169_3 25.48
5 3169_3 3169_4 0.233333
6 3169_4 *3172:A 0
7 3169_4 3169_5 24.08
8 3169_5 3169_6 0.233333
9 3169_6 *3173:A 0
10 3169_6 3169_7 25.3533
11 3169_7 3169_8 0.466667
12 3169_8 *3174:A 0
13 3169_7 3169_9 2.14667
14 3169_9 *3175:A 0
*END
*D_NET *3176 0.0038196
*CONN
*I *3177:Y O *D _1898
*I *3178:A I *L 0
*I *3179:A I *L 0
*I *3180:A I *L 0
*I *3181:A I *L 0
*I *3182:A I *L 0
*CAP
1 3176_1 0.00067728
2 3176_2 0.000102
3 3176_3 0.0007728
4 3176_4 0.00039984
5 3176_5 0.000168
6 3176_6 0.0003432
7 3176_7 0.00109992
8 3176_8 4.08e-05
9 3176_9 0.00021576
*RES
1 *3177:Y 3176_1 9.61333
2 3176_1 3176_2 1.16667
3 3176_2 *3178:A 0
4 3176_1 3176_3 21.4667
5 3176_3 3176_4 4.57333
6 3176_4 *3179:A 0
7 3176_3 3176_5 4.66667
8 3176_5 3176_6 3.64
9 3176_6 *3180:A 0
10 3176_5 3176_7 28.8867
11 3176_7 3176_8 0.466667
12 3176_8 *3181:A 0
13 3176_7 3176_9 4.99333
14 3176_9 *3182:A 0
*END
*D_NET *3183 0.004842
*CONN
*I *3184:Y O *D _1901
*I *3185:A I *L 0
*I *3186:A I *L 0
*I *3187:A I *L 0
*I *3188:A I *L 0
*I *3189:A I *L 0
*CAP
1 3183_1 0.00186504
2 3183_2 4.08e-05
3 3183_3 0.00057816
4 3183_4 0.00023304
5 3183_5 0.00051408
6 3183_6 0.00037344
7 3183_7 0.00101448
8 3183_8 2.04e-05
9 3183_9 0.00020256
*RES
1 *3184:Y 3183_1 30.4067
2 3183_1 3183_2 0.466667
3 3183_2 *3185:A 0
4 3183_1 3183_3 12.9267
5 3183_3 3183_4 2.38
6 3183_4 *3186:A 0
7 3183_3 3183_5 14.28
8 3183_5 3183_6 5.04
9 3183_6 *3187:A 0
10 3183_5 3183_7 23.98
11 3183_7 3183_8 0.233333
12 3183_8 *3188:A 0
13 3183_8 3183_9 4.29333
14 3183_9 *3189:A 0
*END
*D_NET *3190 0.00291
*CONN
*I *3191:Y O *D _1904
*I *3192:A I *L 0
*I *3193:A I *L 0
*I *3194:A I *L 0
*I *3195:A I *L 0
*I *3196:A I *L 0
*CAP
1 3190_1 0.00024408
2 3190_2 2.04e-05
3 3190_3 0.00090576
4 3190_4 8.16e-05
5 3190_5 0.0009744
6 3190_6 0.0002652
7 3190_7 0.00012096
8 3190_8 8.16e-05
9 3190_9 0.000216
*RES
1 *3191:Y 3190_1 3.78
2 3190_1 3190_2 0.233333
3 3190_2 *3192:A 0
4 3190_2 3190_3 20.56
5 3190_3 3190_4 0.933333
6 3190_4 *3193:A 0
7 3190_3 3190_5 27.0667
8 3190_5 3190_6 3.03333
9 3190_6 *3194:A 0
10 3190_5 3190_7 3.36
11 3190_7 3190_8 0.933333
12 3190_8 *3195:A 0
13 3190_7 3190_9 4.66667
14 3190_9 *3196:A 0
*END
*D_NET *3197 0.00318144
*CONN
*I *3198:Y O *D _1902
*I *3199:A I *L 0
*I *3200:A I *L 0
*I *3201:A I *L 0
*I *3202:A I *L 0
*I *3203:A I *L 0
*CAP
1 3197_1 0.00077208
2 3197_2 8.16e-05
3 3197_3 0.0005316
4 3197_4 0.00025536
5 3197_5 0.0001224
6 3197_6 0.00103824
7 3197_7 0.0001428
8 3197_8 0.00013536
9 3197_9 0.000102
*RES
1 *3198:Y 3197_1 13.1133
2 3197_1 3197_2 0.933333
3 3197_2 *3199:A 0
4 3197_1 3197_3 13.7667
5 3197_3 3197_4 7.09333
6 3197_4 3197_5 1.4
7 3197_5 *3200:A 0
8 3197_4 3197_6 28.84
9 3197_6 3197_7 1.63333
10 3197_7 *3201:A 0
11 3197_6 3197_8 2.42667
12 3197_8 *3202:A 0
13 3197_3 3197_9 1.16667
14 3197_9 *3203:A 0
*END
*D_NET *3204 0.00113136
*CONN
*I *3205:Y O *D _1858
*I *3206:C I *L 0
*I *3207:B I *L 0
*I *3208:D I *L 0
*I *3209:D I *L 0
*I *3210:B I *L 0
*CAP
1 3204_1 0.0001428
2 3204_2 2.04e-05
3 3204_3 4.08e-05
4 3204_4 0.0002244
5 3204_5 2.04e-05
6 3204_6 0.00048144
7 3204_7 3.264e-05
8 3204_8 0.0001416
9 3204_9 2.688e-05
*RES
1 *3205:Y 3204_1 1.63333
2 3204_1 3204_2 0.233333
3 3204_2 *3206:C 0
4 3204_2 3204_3 0.466667
5 3204_3 3204_4 2.56667
6 3204_4 3204_5 0.233333
7 3204_5 *3207:B 0
8 3204_5 3204_6 5.50667
9 3204_6 3204_7 0.373333
10 3204_7 *3208:D 0
11 3204_6 3204_8 3.26667
12 3204_8 *3209:D 0
13 3204_3 3204_9 0.746667
14 3204_9 *3210:B 0
*END
*D_NET *3211 0.00074568
*CONN
*P *3211 O
*I *3212:A I *L 0
*I *3213:A I *L 0
*I *3214:A I *L 0
*I *3215:A I *L 0
*I *3216:A I *L 0
*CAP
1 3211_1 6.768e-05
2 3211_2 2.04e-05
3 3211_3 0.0002304
4 3211_4 4.08e-05
5 3211_5 9.408e-05
6 3211_6 2.688e-05
7 3211_7 8.4e-06
8 3211_8 9.384e-05
9 3211_9 0.0001632
*RES
1 *3211 3211_1 1.21333
2 3211_1 3211_2 0.233333
3 3211_2 *3212:A 0
4 3211_2 3211_3 3.73333
5 3211_3 3211_4 0.466667
6 3211_4 *3213:A 0
7 3211_3 3211_5 2.61333
8 3211_5 3211_6 0.746667
9 3211_6 *3214:A 0
10 3211_5 3211_7 0.233333
11 3211_7 3211_8 1.07333
12 3211_8 *3215:A 0
13 3211_7 3211_9 1.86667
14 3211_9 *3216:A 0
*END
*D_NET *3217 0.00070104
*CONN
*P *3217 O
*I *3218:B I *L 0
*I *3219:A I *L 0
*I *3220:A I *L 0
*I *3221:B I *L 0
*I *3222:B I *L 0
*CAP
1 3217_1 0.00012192
2 3217_2 2.04e-05
3 3217_3 0.00019584
4 3217_4 0
5 3217_5 0.0001428
6 3217_6 5.76e-05
7 3217_7 8.112e-05
8 3217_8 8.136e-05
*RES
1 *3217 3217_1 2.05333
2 3217_1 3217_2 0.233333
3 3217_2 *3218:B 0
4 3217_2 3217_3 4.10667
5 3217_3 3217_4 0
6 3217_4 *3219:A 0
7 3217_4 3217_5 1.63333
8 3217_5 3217_6 0.373333
9 3217_6 *3220:A 0
10 3217_5 3217_7 1.58667
11 3217_7 *3221:B 0
12 3217_3 3217_8 1.26
13 3217_8 *3222:B 0
*END
*D_NET *3223 0.0019356
*CONN
*I *3224:Y O *D _1864
*I *3225:A I *L 0
*I *3226:B I *L 0
*I *3227:B I *L 0
*I *3228:C I *L 0
*I *3229:B I *L 0
*CAP
1 3223_1 0.0006264
2 3223_2 1.344e-05
3 3223_3 0.0003504
4 3223_4 0.000102
5 3223_5 9.408e-05
6 3223_6 0.000102
7 3223_7 0.00023688
8 3223_8 0.0004104
*RES
1 *3224:Y 3223_1 8.06667
2 3223_1 3223_2 0.373333
3 3223_2 *3225:A 0
4 3223_1 3223_3 8.73333
5 3223_3 3223_4 1.16667
6 3223_4 *3226:B 0
7 3223_3 3223_5 2.61333
8 3223_5 3223_6 1.16667
9 3223_6 *3227:B 0
10 3223_5 3223_7 4.24667
11 3223_7 *3228:C 0
12 3223_7 3223_8 4.38667
13 3223_8 *3229:B 0
*END
*D_NET *3230 0.00041304
*CONN
*P *3230 O
*I *3231:A I *L 0
*I *3232:B I *L 0
*I *3233:A I *L 0
*I *3234:A I *L 0
*I *3235:A I *L 0
*CAP
1 3230_1 2.688e-05
2 3230_2 6.72e-05
3 3230_3 8.4e-06
4 3230_4 2.688e-05
5 3230_5 4.08e-05
6 3230_6 6.744e-05
7 3230_7 4.08e-05
8 3230_8 9.384e-05
9 3230_9 4.08e-05
*RES
1 *3230 3230_1 0.746667
2 3230_1 3230_2 1.86667
3 3230_2 3230_3 0.233333
4 3230_3 *3231:A 0
5 3230_2 3230_4 0.746667
6 3230_4 3230_5 0.466667
7 3230_5 *3232:B 0
8 3230_4 3230_6 1.54
9 3230_6 3230_7 0.466667
10 3230_7 *3233:A 0
11 3230_6 3230_8 1.07333
12 3230_8 *3234:A 0
13 3230_1 3230_9 0.466667
14 3230_9 *3235:A 0
*END
*D_NET *3236 0.00103032
*CONN
*I *3237:Y O *D _1998
*I *3238:A I *L 0
*I *3239:A I *L 0
*I *3240:A I *L 0
*I *3241:A I *L 0
*I *3242:A I *L 0
*CAP
1 3236_1 0.000204
2 3236_2 0.00012096
3 3236_3 0
4 3236_4 4.704e-05
5 3236_5 0
6 3236_6 2.688e-05
7 3236_7 0
8 3236_8 0.00017616
9 3236_9 0.00045528
*RES
1 *3237:Y 3236_1 2.33333
2 3236_1 3236_2 3.36
3 3236_2 3236_3 0
4 3236_3 *3238:A 0
5 3236_2 3236_4 1.30667
6 3236_4 3236_5 0
7 3236_5 *3239:A 0
8 3236_4 3236_6 0.746667
9 3236_6 3236_7 0
10 3236_7 *3240:A 0
11 3236_6 3236_8 2.89333
12 3236_8 *3241:A 0
13 3236_1 3236_9 5.64667
14 3236_9 *3242:A 0
*END
*D_NET *3243 0.00084384
*CONN
*I *3244:Y O *D _1857
*I *3245:B I *L 0
*I *3246:A I *L 0
*I *3247:A I *L 0
*I *3248:C I *L 0
*CAP
1 3243_1 7.8e-05
2 3243_2 0.000204
3 3243_3 5.76e-05
4 3243_4 0.00024096
5 3243_5 0
6 3243_6 0.00017544
7 3243_7 8.784e-05
*RES
1 *3244:Y 3243_1 0.606667
2 3243_1 3243_2 2.33333
3 3243_2 3243_3 0.373333
4 3243_3 *3245:B 0
5 3243_2 3243_4 2.09333
6 3243_4 3243_5 0
7 3243_5 *3246:A 0
8 3243_5 3243_6 2.00667
9 3243_6 *3247:A 0
10 3243_1 3243_7 1.77333
11 3243_7 *3248:C 0
*END
*D_NET *3249 0.00065112
*CONN
*I *3250:Y O *D _1862
*I *3251:C I *L 0
*I *3252:C I *L 0
*I *3253:A I *L 0
*I *3254:A I *L 0
*CAP
1 3249_1 0.0001836
2 3249_2 2.04e-05
3 3249_3 7.392e-05
4 3249_4 5.76e-05
5 3249_5 0.000258
6 3249_6 5.76e-05
*RES
1 *3250:Y 3249_1 2.1
2 3249_1 3249_2 0.233333
3 3249_2 *3251:C 0
4 3249_2 3249_3 2.05333
5 3249_3 3249_4 0.373333
6 3249_4 *3252:C 0
7 3249_3 3249_5 3.5
8 3249_5 *3253:A 0
9 3249_5 3249_6 0.373333
10 3249_6 *3254:A 0
*END
*D_NET *3255 0.00035304
*CONN
*P *3255 O
*I *3256:B I *L 0
*I *3257:A I *L 0
*I *3258:B I *L 0
*I *3259:B I *L 0
*CAP
1 3255_1 4.032e-05
2 3255_2 4.032e-05
3 3255_3 8.4e-06
4 3255_4 6.048e-05
5 3255_5 8.16e-05
6 3255_6 8.112e-05
7 3255_7 4.08e-05
*RES
1 *3255 3255_1 1.12
2 3255_1 3255_2 1.12
3 3255_2 3255_3 0.233333
4 3255_3 *3256:B 0
5 3255_2 3255_4 1.68
6 3255_4 3255_5 0.933333
7 3255_5 *3257:A 0
8 3255_4 3255_6 1.58667
9 3255_6 *3258:B 0
10 3255_1 3255_7 0.466667
11 3255_7 *3259:B 0
*END
*D_NET *3260 0.00085656
*CONN
*I *3261:Y O *D _1878
*I *3262:A I *L 0
*I *3263:B I *L 0
*I *3264:B I *L 0
*I *3265:C I *L 0
*CAP
1 3260_1 2.04e-05
2 3260_2 0.00021264
3 3260_3 0.00014184
4 3260_4 0
5 3260_5 6.72e-05
6 3260_6 0.00019008
7 3260_7 0.0002244
*RES
1 *3261:Y 3260_1 0.233333
2 3260_1 3260_2 2.14667
3 3260_2 *3262:A 0
4 3260_1 3260_3 2.94
5 3260_3 3260_4 0
6 3260_4 *3263:B 0
7 3260_3 3260_5 1.86667
8 3260_5 3260_6 2.61333
9 3260_6 *3264:B 0
10 3260_5 3260_7 2.56667
11 3260_7 *3265:C 0
*END
*D_NET *3266 0.000798
*CONN
*I *3267:Y O *D _2003
*I *3268:A I *L 0
*I *3269:A I *L 0
*I *3270:A I *L 0
*I *3271:A I *L 0
*CAP
1 3266_1 4.08e-05
2 3266_2 0.00014928
3 3266_3 6.72e-05
4 3266_4 0.000102
5 3266_5 0.00038112
6 3266_6 5.76e-05
*RES
1 *3267:Y 3266_1 0.466667
2 3266_1 3266_2 2.14667
3 3266_2 *3268:A 0
4 3266_1 3266_3 1.86667
5 3266_3 3266_4 1.16667
6 3266_4 *3269:A 0
7 3266_3 3266_5 8.58667
8 3266_5 *3270:A 0
9 3266_5 3266_6 0.373333
10 3266_6 *3271:A 0
*END
*D_NET *3272 0.0006864
*CONN
*I *3273:Y O *D _2169
*I *3274:A I *L 0
*I *3275:A I *L 0
*I *3276:B I *L 0
*I *3277:A I *L 0
*CAP
1 3272_1 0.00016512
2 3272_2 0.0001296
3 3272_3 6.12e-05
4 3272_4 0.0002016
5 3272_5 4.08e-05
6 3272_6 8.808e-05
*RES
1 *3273:Y 3272_1 3.36
2 3272_1 3272_2 0.84
3 3272_2 *3274:A 0
4 3272_1 3272_3 0.7
5 3272_3 *3275:A 0
6 3272_1 3272_4 5.6
7 3272_4 3272_5 0.466667
8 3272_5 *3276:B 0
9 3272_4 3272_6 1.44667
10 3272_6 *3277:A 0
*END
*D_NET *3278 0.00082368
*CONN
*I *3279:Y O *D _3388
*I *3280:A I *L 0
*I *3281:A I *L 0
*I *3282:B I *L 0
*I *3283:B I *L 0
*CAP
1 3278_1 5.76e-05
2 3278_2 4.032e-05
3 3278_3 2.016e-05
4 3278_4 0.000408
5 3278_5 2.04e-05
6 3278_6 0.0002772
*RES
1 *3279:Y 3278_1 0.373333
2 3278_1 *3280:A 0
3 3278_1 3278_2 1.12
4 3278_2 3278_3 0.56
5 3278_3 *3281:A 0
6 3278_2 3278_4 4.66667
7 3278_4 3278_5 0.233333
8 3278_5 *3282:B 0
9 3278_5 3278_6 3.5
10 3278_6 *3283:B 0
*END
*D_NET *3284 0.00039696
*CONN
*I *3285:Y O *D _1852
*I *3286:C I *L 0
*I *3287:A I *L 0
*I *3288:B I *L 0
*CAP
1 3284_1 7.776e-05
2 3284_2 5.76e-05
3 3284_3 0.0001428
4 3284_4 5.76e-05
5 3284_5 6.12e-05
*RES
1 *3285:Y 3284_1 0.933333
2 3284_1 3284_2 0.373333
3 3284_2 *3286:C 0
4 3284_1 3284_3 1.63333
5 3284_3 3284_4 0.373333
6 3284_4 *3287:A 0
7 3284_3 3284_5 0.7
8 3284_5 *3288:B 0
*END
*D_NET *3289 0.00030336
*CONN
*I *3290:Q O *D _3960
*I *3291:A I *L 0
*I *3292:A I *L 0
*I *3293:A I *L 0
*CAP
1 3289_1 8.64e-05
2 3289_2 8.736e-05
3 3289_3 0.0001296
*RES
1 *3290:Q 3289_1 0.56
2 3289_1 *3291:A 0
3 3289_1 3289_2 2.42667
4 3289_2 *3292:A 0
5 3289_2 3289_3 0.84
6 3289_3 *3293:A 0
*END
*D_NET *3294 0.00149544
*CONN
*I *3295:Y O *D _1860
*I *3296:C I *L 0
*I *3297:C I *L 0
*I *3298:A I *L 0
*CAP
1 3294_1 0.00083616
2 3294_2 4.08e-05
3 3294_3 0.00020832
4 3294_4 4.08e-05
5 3294_5 0.00036936
*RES
1 *3295:Y 3294_1 12.2267
2 3294_1 3294_2 0.466667
3 3294_2 *3296:C 0
4 3294_1 3294_3 5.78667
5 3294_3 3294_4 0.466667
6 3294_4 *3297:C 0
7 3294_3 3294_5 5.92667
8 3294_5 *3298:A 0
*END
*D_NET *3299 0.0003276
*CONN
*P *3299 O
*I *3300:A I *L 0
*I *3301:A I *L 0
*I *3302:A I *L 0
*CAP
1 3299_1 0.00012432
2 3299_2 6.768e-05
3 3299_3 4.92e-05
4 3299_4 8.64e-05
*RES
1 *3299 3299_1 3.45333
2 3299_1 3299_2 1.21333
3 3299_2 *3300:A 0
4 3299_1 3299_3 0.7
5 3299_3 *3301:A 0
6 3299_3 3299_4 0.56
7 3299_4 *3302:A 0
*END
*D_NET *3303 0.00036048
*CONN
*P *3303 O
*I *3304:B I *L 0
*I *3305:B I *L 0
*I *3306:B I *L 0
*CAP
1 3303_1 0.00012576
2 3303_2 0
3 3303_3 4.032e-05
4 3303_4 8.64e-05
5 3303_5 0.000108
*RES
1 *3303 3303_1 2.69333
2 3303_1 3303_2 0
3 3303_2 *3304:B 0
4 3303_1 3303_3 1.12
5 3303_3 3303_4 0.56
6 3303_4 *3305:B 0
7 3303_3 3303_5 0.7
8 3303_5 *3306:B 0
*END
*D_NET *3307 0.00139416
*CONN
*I *3308:Q O *D _3893
*I *3309:A I *L 0
*I *3310:C I *L 0
*I *3311:A I *L 0
*CAP
1 3307_1 0.00024432
2 3307_2 0
3 3307_3 0.00069192
4 3307_4 0.00032232
5 3307_5 0.0001356
*RES
1 *3308:Q 3307_1 3.45333
2 3307_1 3307_2 0
3 3307_2 *3309:A 0
4 3307_1 3307_3 11.22
5 3307_3 3307_4 4.06
6 3307_4 *3310:C 0
7 3307_3 3307_5 0.98
8 3307_5 *3311:A 0
*END
*D_NET *3312 0.00163944
*CONN
*I *3313:Q O *D _3861
*I *3314:A I *L 0
*I *3315:C I *L 0
*I *3316:A I *L 0
*CAP
1 3312_1 2.04e-05
2 3312_2 0.00036
3 3312_3 0.0002652
4 3312_4 0.0008052
5 3312_5 0.00018864
*RES
1 *3313:Q 3312_1 0.233333
2 3312_1 3312_2 4.66667
3 3312_2 3312_3 3.03333
4 3312_3 *3314:A 0
5 3312_2 3312_4 14.7
6 3312_4 *3315:C 0
7 3312_1 3312_5 4.57333
8 3312_5 *3316:A 0
*END
*D_NET *3317 0.00095256
*CONN
*I *3318:Y O *D _1880
*I *3319:B I *L 0
*I *3320:C I *L 0
*I *3321:C I *L 0
*CAP
1 3317_1 0.00017544
2 3317_2 2.04e-05
3 3317_3 0.00058104
4 3317_4 4.08e-05
5 3317_5 0.00013488
*RES
1 *3318:Y 3317_1 2.00667
2 3317_1 3317_2 0.233333
3 3317_2 *3319:B 0
4 3317_2 3317_3 11.8067
5 3317_3 3317_4 0.466667
6 3317_4 *3320:C 0
7 3317_3 3317_5 3.08
8 3317_5 *3321:C 0
*END
*D_NET *3322 0.00088032
*CONN
*I *3323:Y O *D _1883
*I *3324:A I *L 0
*I *3325:C I *L 0
*I *3326:B I *L 0
*CAP
1 3322_1 0.00050664
2 3322_2 0
3 3322_3 0.00025152
4 3322_4 6.12e-05
5 3322_5 6.096e-05
*RES
1 *3323:Y 3322_1 8.27333
2 3322_1 3322_2 0
3 3322_2 *3324:A 0
4 3322_1 3322_3 2.58667
5 3322_3 3322_4 0.7
6 3322_4 *3325:C 0
7 3322_3 3322_5 1.02667
8 3322_5 *3326:B 0
*END
*D_NET *3327 0.00206496
*CONN
*I *3328:Q O *D _3925
*I *3329:A I *L 0
*I *3330:A I *L 0
*I *3331:C I *L 0
*CAP
1 3327_1 0.00034296
2 3327_2 0.00088992
3 3327_3 4.08e-05
4 3327_4 0.00079128
*RES
1 *3328:Q 3327_1 3.96667
2 3327_1 3327_2 10.2533
3 3327_2 *3329:A 0
4 3327_1 3327_3 0.466667
5 3327_3 *3330:A 0
6 3327_1 3327_4 8.64667
7 3327_4 *3331:C 0
*END
*D_NET *3332 0.00164544
*CONN
*I *3333:Q O *D _3894
*I *3334:A I *L 0
*I *3335:C I *L 0
*I *3336:A I *L 0
*CAP
1 3332_1 0
2 3332_2 0.00105072
3 3332_3 0.00016896
4 3332_4 0.00010752
5 3332_5 0.00031824
*RES
1 *3333:Q 3332_1 0
2 3332_1 3332_2 25.8533
3 3332_2 *3334:A 0
4 3332_1 3332_3 3.36
5 3332_3 3332_4 2.98667
6 3332_4 *3335:C 0
7 3332_3 3332_5 3.64
8 3332_5 *3336:A 0
*END
*D_NET *3337 0.00329328
*CONN
*I *3338:Q O *D _3830
*I *3339:A I *L 0
*I *3340:A I *L 0
*I *3341:C I *L 0
*CAP
1 3337_1 0.00027144
2 3337_2 0.00018
3 3337_3 0.00074808
4 3337_4 0.00209376
*RES
1 *3338:Q 3337_1 3.87333
2 3337_1 *3339:A 0
3 3337_1 3337_2 1.77333
4 3337_2 3337_3 14.74
5 3337_3 *3340:A 0
6 3337_2 3337_4 36.36
7 3337_4 *3341:C 0
*END
*D_NET *3342 0.00212784
*CONN
*I *3343:Q O *D _3862
*I *3344:A I *L 0
*I *3345:A I *L 0
*I *3346:C I *L 0
*CAP
1 3342_1 0
2 3342_2 0.00128952
3 3342_3 0.0002436
4 3342_4 0.0001428
5 3342_5 0.00045192
*RES
1 *3343:Q 3342_1 0
2 3342_1 3342_2 31.5933
3 3342_2 *3344:A 0
4 3342_1 3342_3 4.43333
5 3342_3 3342_4 1.63333
6 3342_4 *3345:A 0
7 3342_3 3342_5 10.22
8 3342_5 *3346:C 0
*END
*D_NET *3347 0.00186432
*CONN
*I *3348:Q O *D _3895
*I *3349:A I *L 0
*I *3350:C I *L 0
*I *3351:B I *L 0
*CAP
1 3347_1 8.64e-05
2 3347_2 0.00136992
3 3347_3 0.0001836
4 3347_4 0.0002244
*RES
1 *3348:Q 3347_1 0.56
2 3347_1 *3349:A 0
3 3347_1 3347_2 35.92
4 3347_2 3347_3 2.1
5 3347_3 *3350:C 0
6 3347_2 3347_4 2.56667
7 3347_4 *3351:B 0
*END
*D_NET *3352 0.00131568
*CONN
*I *3353:Q O *D _3927
*I *3354:A I *L 0
*I *3355:C I *L 0
*I *3356:C I *L 0
*CAP
1 3352_1 0.00034464
2 3352_2 2.04e-05
3 3352_3 0.00081576
4 3352_4 5.376e-05
5 3352_5 8.112e-05
*RES
1 *3353:Q 3352_1 5.04
2 3352_1 3352_2 0.233333
3 3352_2 *3354:A 0
4 3352_2 3352_3 9.66
5 3352_3 3352_4 1.49333
6 3352_4 *3355:C 0
7 3352_3 3352_5 1.58667
8 3352_5 *3356:C 0
*END
*D_NET *3357 0.0022992
*CONN
*I *3358:Q O *D _3863
*I *3359:C I *L 0
*I *3360:A I *L 0
*I *3361:A I *L 0
*CAP
1 3357_1 0.000102
2 3357_2 0.00105984
3 3357_3 0.00063504
4 3357_4 0.00023208
5 3357_5 0.00027024
*RES
1 *3358:Q 3357_1 1.16667
2 3357_1 3357_2 22.7733
3 3357_2 3357_3 12.9733
4 3357_3 *3359:C 0
5 3357_2 3357_4 2.71333
6 3357_4 *3360:A 0
7 3357_1 3357_5 5.50667
8 3357_5 *3361:A 0
*END
*D_NET *3362 0.00143232
*CONN
*I *3363:Q O *D _3831
*I *3364:A I *L 0
*I *3365:C I *L 0
*I *3366:C I *L 0
*CAP
1 3362_1 0.00040704
2 3362_2 2.04e-05
3 3362_3 0.0003924
4 3362_4 9.024e-05
5 3362_5 0.00052224
*RES
1 *3363:Q 3362_1 5.97333
2 3362_1 3362_2 0.233333
3 3362_2 *3364:A 0
4 3362_2 3362_3 5.36667
5 3362_3 3362_4 0.746667
6 3362_4 *3365:C 0
7 3362_3 3362_5 5.97333
8 3362_5 *3366:C 0
*END
*D_NET *3367 0.00089472
*CONN
*I *3368:Q O *D _3896
*I *3369:A I *L 0
*I *3370:C I *L 0
*I *3371:B I *L 0
*CAP
1 3367_1 0.000204
2 3367_2 2.04e-05
3 3367_3 0.00037824
4 3367_4 0.00027168
5 3367_5 2.04e-05
*RES
1 *3368:Q 3367_1 2.33333
2 3367_1 3367_2 0.233333
3 3367_2 *3369:A 0
4 3367_2 3367_3 7.84
5 3367_3 3367_4 3.54667
6 3367_4 *3370:C 0
7 3367_3 3367_5 0.233333
8 3367_5 *3371:B 0
*END
*D_NET *3372 0.00180984
*CONN
*I *3373:Q O *D _3928
*I *3374:A I *L 0
*I *3375:C I *L 0
*I *3376:C I *L 0
*CAP
1 3372_1 2.04e-05
2 3372_2 0.00048144
3 3372_3 0.00011472
4 3372_4 0.0008628
5 3372_5 0.00033048
*RES
1 *3373:Q 3372_1 0.233333
2 3372_1 3372_2 5.50667
3 3372_2 3372_3 2.52
4 3372_3 *3374:A 0
5 3372_2 3372_4 10.9667
6 3372_4 *3375:C 0
7 3372_1 3372_5 7.51333
8 3372_5 *3376:C 0
*END
*D_NET *3377 0.00084168
*CONN
*I *3378:Q O *D _3864
*I *3379:A I *L 0
*I *3380:C I *L 0
*I *3381:A I *L 0
*CAP
1 3377_1 0.00027144
2 3377_2 2.04e-05
3 3377_3 0.00022416
4 3377_4 2.04e-05
5 3377_5 0.00030528
*RES
1 *3378:Q 3377_1 3.87333
2 3377_1 3377_2 0.233333
3 3377_2 *3379:A 0
4 3377_2 3377_3 2.89333
5 3377_3 3377_4 0.233333
6 3377_4 *3380:C 0
7 3377_4 3377_5 4.48
8 3377_5 *3381:A 0
*END
*D_NET *3382 0.00158232
*CONN
*I *3383:Q O *D _3832
*I *3384:C I *L 0
*I *3385:C I *L 0
*I *3386:A I *L 0
*CAP
1 3382_1 0.0001428
2 3382_2 0.00022512
3 3382_3 0.0002124
4 3382_4 0.0007848
5 3382_5 0.0002172
*RES
1 *3383:Q 3382_1 1.63333
2 3382_1 3382_2 6.25333
3 3382_2 3382_3 2.56667
4 3382_3 *3384:C 0
5 3382_2 3382_4 15.1333
6 3382_4 *3385:C 0
7 3382_1 3382_5 3.03333
8 3382_5 *3386:A 0
*END
*D_NET *3387 0.0005544
*CONN
*I *3388:Q O *D _3897
*I *3389:C I *L 0
*I *3390:B I *L 0
*I *3391:A I *L 0
*CAP
1 3387_1 0.00013464
2 3387_2 6.12e-05
3 3387_3 2.04e-05
4 3387_4 8.136e-05
5 3387_5 0.0002568
*RES
1 *3388:Q 3387_1 1.54
2 3387_1 3387_2 0.7
3 3387_2 3387_3 0.233333
4 3387_3 *3389:C 0
5 3387_3 3387_4 1.26
6 3387_4 *3390:B 0
7 3387_1 3387_5 5.13333
8 3387_5 *3391:A 0
*END
*D_NET *3392 0.00113136
*CONN
*I *3393:Q O *D _3929
*I *3394:C I *L 0
*I *3395:C I *L 0
*I *3396:A I *L 0
*CAP
1 3392_1 2.04e-05
2 3392_2 0.00019584
3 3392_3 0
4 3392_4 0.00072648
5 3392_5 0.00018864
*RES
1 *3393:Q 3392_1 0.233333
2 3392_1 3392_2 2.24
3 3392_2 3392_3 0
4 3392_3 *3394:C 0
5 3392_3 3392_4 7.62
6 3392_4 *3395:C 0
7 3392_1 3392_5 4.57333
8 3392_5 *3396:A 0
*END
*D_NET *3397 0.00051552
*CONN
*I *3398:Q O *D _3865
*I *3399:A I *L 0
*I *3400:C I *L 0
*I *3401:A I *L 0
*CAP
1 3397_1 0
2 3397_2 0.00018312
3 3397_3 2.688e-05
4 3397_4 0.0001632
5 3397_5 0.00014232
*RES
1 *3398:Q 3397_1 0
2 3397_1 3397_2 2.75333
3 3397_2 *3399:A 0
4 3397_1 3397_3 0.746667
5 3397_3 3397_4 1.86667
6 3397_4 *3400:C 0
7 3397_3 3397_5 2.28667
8 3397_5 *3401:A 0
*END
*D_NET *3402 0.00066912
*CONN
*I *3403:Q O *D _3833
*I *3404:C I *L 0
*I *3405:A I *L 0
*I *3406:C I *L 0
*CAP
1 3402_1 0.0001428
2 3402_2 0.00012216
3 3402_3 2.04e-05
4 3402_4 0.00038376
*RES
1 *3403:Q 3402_1 1.63333
2 3402_1 *3404:C 0
3 3402_1 3402_2 1.72667
4 3402_2 3402_3 0.233333
5 3402_3 *3405:A 0
6 3402_3 3402_4 4.43333
7 3402_4 *3406:C 0
*END
*D_NET *3407 0.00079584
*CONN
*I *3408:Q O *D _3898
*I *3409:A I *L 0
*I *3410:B I *L 0
*I *3411:C I *L 0
*CAP
1 3407_1 6.12e-05
2 3407_2 6.12e-05
3 3407_3 0.0001584
4 3407_4 0.00051504
*RES
1 *3408:Q 3407_1 0.7
2 3407_1 3407_2 0.7
3 3407_2 *3409:A 0
4 3407_2 3407_3 1.02667
5 3407_3 *3410:B 0
6 3407_1 3407_4 8.24
7 3407_4 *3411:C 0
*END
*D_NET *3412 0.00081288
*CONN
*I *3413:Q O *D _3930
*I *3414:A I *L 0
*I *3415:C I *L 0
*I *3416:C I *L 0
*CAP
1 3412_1 6.768e-05
2 3412_2 2.04e-05
3 3412_3 6.12e-05
4 3412_4 0.00045384
5 3412_5 0.00020976
*RES
1 *3413:Q 3412_1 1.21333
2 3412_1 3412_2 0.233333
3 3412_2 3412_3 0.7
4 3412_3 *3414:A 0
5 3412_2 3412_4 4.80667
6 3412_4 *3415:C 0
7 3412_1 3412_5 3.82667
8 3412_5 *3416:C 0
*END
*D_NET *3417 0.0008724
*CONN
*I *3418:Q O *D _3866
*I *3419:C I *L 0
*I *3420:A I *L 0
*I *3421:A I *L 0
*CAP
1 3417_1 0.0003648
2 3417_2 0.0004212
3 3417_3 8.64e-05
*RES
1 *3418:Q 3417_1 7.46667
2 3417_1 *3419:C 0
3 3417_1 3417_2 5.36667
4 3417_2 *3420:A 0
5 3417_1 3417_3 0.56
6 3417_3 *3421:A 0
*END
*D_NET *3422 0.00231576
*CONN
*I *3423:Q O *D _3834
*I *3424:C I *L 0
*I *3425:C I *L 0
*I *3426:A I *L 0
*CAP
1 3422_1 2.04e-05
2 3422_2 0.00189624
3 3422_3 0
4 3422_4 0.00010128
5 3422_5 0.00029784
*RES
1 *3423:Q 3422_1 0.233333
2 3422_1 3422_2 23.0067
3 3422_2 3422_3 0
4 3422_3 *3424:C 0
5 3422_3 3422_4 2.14667
6 3422_4 *3425:C 0
7 3422_1 3422_5 3.40667
8 3422_5 *3426:A 0
*END
*D_NET *3427 0.00090768
*CONN
*I *3428:Q O *D _3899
*I *3429:C I *L 0
*I *3430:B I *L 0
*I *3431:A I *L 0
*CAP
1 3427_1 6.12e-05
2 3427_2 0.00035712
3 3427_3 0.00011424
4 3427_4 0.00028128
5 3427_5 9.384e-05
*RES
1 *3428:Q 3427_1 0.7
2 3427_1 3427_2 8.58667
3 3427_2 3427_3 1.30667
4 3427_3 *3429:C 0
5 3427_2 3427_4 3.92
6 3427_4 *3430:B 0
7 3427_1 3427_5 1.07333
8 3427_5 *3431:A 0
*END
*D_NET *3432 0.00257088
*CONN
*I *3433:Q O *D _3931
*I *3434:A I *L 0
*I *3435:C I *L 0
*I *3436:C I *L 0
*CAP
1 3432_1 0.00019632
2 3432_2 2.04e-05
3 3432_3 0.00019608
4 3432_4 2.04e-05
5 3432_5 0.00213768
*RES
1 *3433:Q 3432_1 3.45333
2 3432_1 3432_2 0.233333
3 3432_2 *3434:A 0
4 3432_2 3432_3 3.78
5 3432_3 3432_4 0.233333
6 3432_4 *3435:C 0
7 3432_4 3432_5 26.6467
8 3432_5 *3436:C 0
*END
*D_NET *3437 0.00051984
*CONN
*I *3438:Q O *D _3867
*I *3439:C I *L 0
*I *3440:A I *L 0
*I *3441:A I *L 0
*CAP
1 3437_1 0
2 3437_2 6.048e-05
3 3437_3 0.0001272
4 3437_4 0.00016896
5 3437_5 0.0001632
*RES
1 *3438:Q 3437_1 0
2 3437_1 3437_2 1.68
3 3437_2 3437_3 1.02667
4 3437_3 *3439:C 0
5 3437_2 3437_4 3.36
6 3437_4 *3440:A 0
7 3437_1 3437_5 1.86667
8 3437_5 *3441:A 0
*END
*D_NET *3442 0.00096984
*CONN
*I *3443:Q O *D _3835
*I *3444:C I *L 0
*I *3445:A I *L 0
*I *3446:C I *L 0
*CAP
1 3442_1 8.64e-05
2 3442_2 0.00015072
3 3442_3 0.00010128
4 3442_4 0.00063144
*RES
1 *3443:Q 3442_1 0.56
2 3442_1 *3444:C 0
3 3442_1 3442_2 2.58667
4 3442_2 3442_3 2.14667
5 3442_3 *3445:A 0
6 3442_2 3442_4 6.34
7 3442_4 *3446:C 0
*END
*D_NET *3447 0.00107856
*CONN
*I *3448:Q O *D _3900
*I *3449:B I *L 0
*I *3450:A I *L 0
*I *3451:C I *L 0
*CAP
1 3447_1 2.04e-05
2 3447_2 0.00068352
3 3447_3 0.00026304
4 3447_4 6.12e-05
5 3447_5 5.04e-05
*RES
1 *3448:Q 3447_1 0.233333
2 3447_1 3447_2 11.88
3 3447_2 *3449:B 0
4 3447_1 3447_3 5.97333
5 3447_3 3447_4 0.7
6 3447_4 *3450:A 0
7 3447_3 3447_5 1.4
8 3447_5 *3451:C 0
*END
*D_NET *3452 0.00113112
*CONN
*I *3453:Q O *D _3932
*I *3454:C I *L 0
*I *3455:C I *L 0
*I *3456:A I *L 0
*CAP
1 3452_1 2.04e-05
2 3452_2 0.00057456
3 3452_3 7.2e-05
4 3452_4 9.36e-05
5 3452_5 0.00037056
*RES
1 *3453:Q 3452_1 0.233333
2 3452_1 3452_2 8.82667
3 3452_2 3452_3 0.466667
4 3452_3 *3454:C 0
5 3452_2 3452_4 0.606667
6 3452_4 *3455:C 0
7 3452_1 3452_5 7.09333
8 3452_5 *3456:A 0
*END
*D_NET *3457 0.00179592
*CONN
*I *3458:Q O *D _3868
*I *3459:A I *L 0
*I *3460:A I *L 0
*I *3461:C I *L 0
*CAP
1 3457_1 5.76e-05
2 3457_2 0.00049992
3 3457_3 0.000156
4 3457_4 0.0003804
5 3457_5 0.000702
*RES
1 *3458:Q 3457_1 0.373333
2 3457_1 3457_2 10.22
3 3457_2 3457_3 1.21333
4 3457_3 *3459:A 0
5 3457_2 3457_4 3.78
6 3457_4 *3460:A 0
7 3457_1 3457_5 15.1667
8 3457_5 *3461:C 0
*END
*D_NET *3462 0.00099576
*CONN
*I *3463:Q O *D _3836
*I *3464:C I *L 0
*I *3465:A I *L 0
*I *3466:C I *L 0
*CAP
1 3462_1 8.64e-05
2 3462_2 0.00022848
3 3462_3 4.08e-05
4 3462_4 0.00064008
*RES
1 *3463:Q 3462_1 0.56
2 3462_1 *3464:C 0
3 3462_1 3462_2 6.34667
4 3462_2 3462_3 0.466667
5 3462_3 *3465:A 0
6 3462_2 3462_4 15.4467
7 3462_4 *3466:C 0
*END
*D_NET *3467 0.00144888
*CONN
*I *3468:Q O *D _3901
*I *3469:C I *L 0
*I *3470:B I *L 0
*I *3471:A I *L 0
*CAP
1 3467_1 0.0002652
2 3467_2 0.00035616
3 3467_3 0.00047976
4 3467_4 0.0001716
5 3467_5 0.00017616
*RES
1 *3468:Q 3467_1 3.03333
2 3467_1 3467_2 9.89333
3 3467_2 3467_3 7.19333
4 3467_3 *3469:C 0
5 3467_2 3467_4 2.1
6 3467_4 *3470:B 0
7 3467_1 3467_5 1.82667
8 3467_5 *3471:A 0
*END
*D_NET *3472 0.0035796
*CONN
*I *3473:Q O *D _3933
*I *3474:A I *L 0
*I *3475:C I *L 0
*I *3476:C I *L 0
*CAP
1 3472_1 0.00012192
2 3472_2 2.688e-05
3 3472_3 0.00206688
4 3472_4 0.00030912
5 3472_5 0.0010548
*RES
1 *3473:Q 3472_1 2.38667
2 3472_1 3472_2 0.746667
3 3472_2 *3474:A 0
4 3472_1 3472_3 32.4133
5 3472_3 3472_4 8.58667
6 3472_4 *3475:C 0
7 3472_3 3472_5 13.3
8 3472_5 *3476:C 0
*END
*D_NET *3477 0.00122808
*CONN
*I *3478:Q O *D _3869
*I *3479:A I *L 0
*I *3480:A I *L 0
*I *3481:C I *L 0
*CAP
1 3477_1 5.376e-05
2 3477_2 4.08e-05
3 3477_3 4.032e-05
4 3477_4 0.00059112
5 3477_5 0.00050208
*RES
1 *3478:Q 3477_1 1.49333
2 3477_1 3477_2 0.466667
3 3477_2 *3479:A 0
4 3477_1 3477_3 1.12
5 3477_3 3477_4 6.55333
6 3477_4 *3480:A 0
7 3477_3 3477_5 7.28
8 3477_5 *3481:C 0
*END
*D_NET *3482 0.00110544
*CONN
*I *3483:Q O *D _3837
*I *3484:C I *L 0
*I *3485:C I *L 0
*I *3486:A I *L 0
*CAP
1 3482_1 5.424e-05
2 3482_2 0.00026328
3 3482_3 2.04e-05
4 3482_4 0.00064584
5 3482_5 0.00012168
*RES
1 *3483:Q 3482_1 0.84
2 3482_1 3482_2 3.11333
3 3482_2 3482_3 0.233333
4 3482_3 *3484:C 0
5 3482_3 3482_4 8.20667
6 3482_4 *3485:C 0
7 3482_1 3482_5 2.38
8 3482_5 *3486:A 0
*END
*D_NET *3487 0.00162768
*CONN
*I *3488:Q O *D _3902
*I *3489:A I *L 0
*I *3490:B I *L 0
*I *3491:C I *L 0
*CAP
1 3487_1 7.8e-05
2 3487_2 0.00029832
3 3487_3 4.08e-05
4 3487_4 0.0005952
5 3487_5 0.00061536
*RES
1 *3488:Q 3487_1 1.16667
2 3487_1 3487_2 6.95333
3 3487_2 3487_3 0.466667
4 3487_3 *3489:A 0
5 3487_2 3487_4 10.7733
6 3487_4 *3490:B 0
7 3487_1 3487_5 6.09333
8 3487_5 *3491:C 0
*END
*D_NET *3492 0.00166608
*CONN
*I *3493:Q O *D _3934
*I *3494:A I *L 0
*I *3495:C I *L 0
*I *3496:C I *L 0
*CAP
1 3492_1 8.64e-05
2 3492_2 0.0014172
3 3492_3 6.12e-05
4 3492_4 0.00010128
*RES
1 *3493:Q 3492_1 0.56
2 3492_1 *3494:A 0
3 3492_1 3492_2 18.5
4 3492_2 3492_3 0.7
5 3492_3 *3495:C 0
6 3492_2 3492_4 2.14667
7 3492_4 *3496:C 0
*END
*D_NET *3497 0.00182304
*CONN
*I *3498:Q O *D _3870
*I *3499:C I *L 0
*I *3500:A I *L 0
*I *3501:A I *L 0
*CAP
1 3497_1 5.76e-05
2 3497_2 0.00083856
3 3497_3 0.00058152
4 3497_4 0.0001908
5 3497_5 0.00015456
*RES
1 *3498:Q 3497_1 0.373333
2 3497_1 3497_2 14.0933
3 3497_2 3497_3 11.82
4 3497_3 *3499:C 0
5 3497_2 3497_4 1.54
6 3497_4 *3500:A 0
7 3497_1 3497_5 4.29333
8 3497_5 *3501:A 0
*END
*D_NET *3502 0.00171864
*CONN
*I *3503:Q O *D _3838
*I *3504:C I *L 0
*I *3505:C I *L 0
*I *3506:A I *L 0
*CAP
1 3502_1 0.00022368
2 3502_2 0.00140856
3 3502_3 8.64e-05
*RES
1 *3503:Q 3502_1 3.54667
2 3502_1 *3504:C 0
3 3502_1 3502_2 17.0333
4 3502_2 *3505:C 0
5 3502_1 3502_3 0.56
6 3502_3 *3506:A 0
*END
*D_NET *3507 0.00083088
*CONN
*I *3508:Q O *D _3903
*I *3509:A I *L 0
*I *3510:B I *L 0
*I *3511:C I *L 0
*CAP
1 3507_1 0
2 3507_2 0.00014784
3 3507_3 0.000102
4 3507_4 0.0004932
5 3507_5 8.784e-05
*RES
1 *3508:Q 3507_1 0
2 3507_1 3507_2 4.10667
3 3507_2 3507_3 1.16667
4 3507_3 *3509:A 0
5 3507_2 3507_4 10.0333
6 3507_4 *3510:B 0
7 3507_1 3507_5 1.77333
8 3507_5 *3511:C 0
*END
*D_NET *3512 0.00125208
*CONN
*I *3513:Q O *D _3935
*I *3514:A I *L 0
*I *3515:C I *L 0
*I *3516:C I *L 0
*CAP
1 3512_1 6.12e-05
2 3512_2 0.00021696
3 3512_3 0
4 3512_4 0.00056928
5 3512_5 0.00040464
*RES
1 *3513:Q 3512_1 0.7
2 3512_1 3512_2 3.36
3 3512_2 3512_3 0
4 3512_3 *3514:A 0
5 3512_3 3512_4 9.14667
6 3512_4 *3515:C 0
7 3512_1 3512_5 9.24
8 3512_5 *3516:C 0
*END
*D_NET *3517 0.00154776
*CONN
*I *3518:Q O *D _3871
*I *3519:A I *L 0
*I *3520:A I *L 0
*I *3521:C I *L 0
*CAP
1 3517_1 0.00032256
2 3517_2 0
3 3517_3 0.00041088
4 3517_4 6.96e-05
5 3517_5 0.00074472
*RES
1 *3518:Q 3517_1 3.73333
2 3517_1 3517_2 0
3 3517_2 *3519:A 0
4 3517_1 3517_3 10.4133
5 3517_3 3517_4 0.933333
6 3517_4 *3520:A 0
7 3517_3 3517_5 17.4867
8 3517_5 *3521:C 0
*END
*D_NET *3522 0.00177
*CONN
*I *3523:Q O *D _3839
*I *3524:C I *L 0
*I *3525:C I *L 0
*I *3526:A I *L 0
*CAP
1 3522_1 9.84e-05
2 3522_2 0.00066552
3 3522_3 6.12e-05
4 3522_4 0.00062616
5 3522_5 0.00031872
*RES
1 *3523:Q 3522_1 0.84
2 3522_1 3522_2 18.1533
3 3522_2 3522_3 0.7
4 3522_3 *3524:C 0
5 3522_2 3522_4 9.46
6 3522_4 *3525:C 0
7 3522_1 3522_5 4.85333
8 3522_5 *3526:A 0
*END
*D_NET *3527 0.00098064
*CONN
*I *3528:Q O *D _3904
*I *3529:C I *L 0
*I *3530:B I *L 0
*I *3531:A I *L 0
*CAP
1 3527_1 0
2 3527_2 0.00036672
3 3527_3 0.0003708
4 3527_4 0.00024312
*RES
1 *3528:Q 3527_1 0
2 3527_1 3527_2 4.85333
3 3527_2 *3529:C 0
4 3527_2 3527_3 3.31333
5 3527_3 *3530:B 0
6 3527_1 3527_4 5.08667
7 3527_4 *3531:A 0
*END
*D_NET *3532 0.00113064
*CONN
*I *3533:Q O *D _3936
*I *3534:C I *L 0
*I *3535:A I *L 0
*I *3536:C I *L 0
*CAP
1 3532_1 0.00017544
2 3532_2 1.344e-05
3 3532_3 0.00018912
4 3532_4 2.04e-05
5 3532_5 0.00073224
*RES
1 *3533:Q 3532_1 2.00667
2 3532_1 3532_2 0.373333
3 3532_2 *3534:C 0
4 3532_1 3532_3 3.92
5 3532_3 3532_4 0.233333
6 3532_4 *3535:A 0
7 3532_4 3532_5 7.80667
8 3532_5 *3536:C 0
*END
*D_NET *3537 0.000642
*CONN
*I *3538:Q O *D _3872
*I *3539:C I *L 0
*I *3540:A I *L 0
*I *3541:A I *L 0
*CAP
1 3537_1 0.0002436
2 3537_2 0.0001008
3 3537_3 6.12e-05
4 3537_4 0.0001956
5 3537_5 4.08e-05
*RES
1 *3538:Q 3537_1 4.43333
2 3537_1 3537_2 2.8
3 3537_2 3537_3 0.7
4 3537_3 *3539:C 0
5 3537_2 3537_4 2.56667
6 3537_4 *3540:A 0
7 3537_1 3537_5 0.466667
8 3537_5 *3541:A 0
*END
*D_NET *3542 0.00119352
*CONN
*I *3543:Q O *D _3840
*I *3544:A I *L 0
*I *3545:C I *L 0
*I *3546:C I *L 0
*CAP
1 3542_1 5.376e-05
2 3542_2 0.000102
3 3542_3 0.0006384
4 3542_4 0.00032976
5 3542_5 6.96e-05
*RES
1 *3543:Q 3542_1 1.49333
2 3542_1 3542_2 1.16667
3 3542_2 *3544:A 0
4 3542_1 3542_3 17.7333
5 3542_3 3542_4 8.49333
6 3542_4 *3545:C 0
7 3542_3 3542_5 0.933333
8 3542_5 *3546:C 0
*END
*D_NET *3547 0.00254976
*CONN
*I *3548:Q O *D _3905
*I *3549:C I *L 0
*I *3550:B I *L 0
*I *3551:A I *L 0
*CAP
1 3547_1 0.0001296
2 3547_2 0.00180072
3 3547_3 0.00020928
4 3547_4 0.0002892
5 3547_5 0.00012096
*RES
1 *3548:Q 3547_1 1.6
2 3547_1 3547_2 16.1533
3 3547_2 3547_3 2.61333
4 3547_3 *3549:C 0
5 3547_2 3547_4 4.52667
6 3547_4 *3550:B 0
7 3547_1 3547_5 3.36
8 3547_5 *3551:A 0
*END
*D_NET *3552 0.00176136
*CONN
*I *3553:Q O *D _3937
*I *3554:C I *L 0
*I *3555:C I *L 0
*I *3556:A I *L 0
*CAP
1 3552_1 6.12e-05
2 3552_2 0.00046752
3 3552_3 2.04e-05
4 3552_4 0.0008808
5 3552_5 0.00033144
*RES
1 *3553:Q 3552_1 0.7
2 3552_1 3552_2 7.65333
3 3552_2 3552_3 0.233333
4 3552_3 *3554:C 0
5 3552_3 3552_4 10.9333
6 3552_4 *3555:C 0
7 3552_1 3552_5 6.20667
8 3552_5 *3556:A 0
*END
*D_NET *3557 0.00126576
*CONN
*I *3558:Q O *D _3873
*I *3559:A I *L 0
*I *3560:A I *L 0
*I *3561:C I *L 0
*CAP
1 3557_1 2.688e-05
2 3557_2 0.00059592
3 3557_3 0.0001224
4 3557_4 2.04e-05
5 3557_5 0.00050016
*RES
1 *3558:Q 3557_1 0.746667
2 3557_1 3557_2 10.22
3 3557_2 *3559:A 0
4 3557_1 3557_3 1.4
5 3557_3 3557_4 0.233333
6 3557_4 *3560:A 0
7 3557_4 3557_5 6.16
8 3557_5 *3561:C 0
*END
*D_NET *3562 0.00116736
*CONN
*I *3563:Q O *D _3841
*I *3564:C I *L 0
*I *3565:A I *L 0
*I *3566:C I *L 0
*CAP
1 3562_1 0.00015264
2 3562_2 6.72e-05
3 3562_3 8.16e-05
4 3562_4 0.00029184
5 3562_5 0.00057408
*RES
1 *3563:Q 3562_1 2.04
2 3562_1 3562_2 1.86667
3 3562_2 3562_3 0.933333
4 3562_3 *3564:C 0
5 3562_2 3562_4 4.10667
6 3562_4 *3565:A 0
7 3562_1 3562_5 5.61333
8 3562_5 *3566:C 0
*END
*D_NET *3567 0.001014
*CONN
*I *3568:Q O *D _3906
*I *3569:A I *L 0
*I *3570:B I *L 0
*I *3571:C I *L 0
*CAP
1 3567_1 0.0002772
2 3567_2 2.04e-05
3 3567_3 0.0001428
4 3567_4 2.04e-05
5 3567_5 0.0005532
*RES
1 *3568:Q 3567_1 3.5
2 3567_1 3567_2 0.233333
3 3567_2 *3569:A 0
4 3567_2 3567_3 1.63333
5 3567_3 3567_4 0.233333
6 3567_4 *3570:B 0
7 3567_4 3567_5 5.36667
8 3567_5 *3571:C 0
*END
*D_NET *3572 0.0014808
*CONN
*I *3573:Q O *D _3938
*I *3574:C I *L 0
*I *3575:C I *L 0
*I *3576:A I *L 0
*CAP
1 3572_1 2.04e-05
2 3572_2 0.00083208
3 3572_3 4.08e-05
4 3572_4 0.00027648
5 3572_5 0.00031104
*RES
1 *3573:Q 3572_1 0.233333
2 3572_1 3572_2 9.38
3 3572_2 3572_3 0.466667
4 3572_3 *3574:C 0
5 3572_2 3572_4 6.34667
6 3572_4 *3575:C 0
7 3572_1 3572_5 5.97333
8 3572_5 *3576:A 0
*END
*D_NET *3577 0.00167688
*CONN
*I *3578:Q O *D _3874
*I *3579:A I *L 0
*I *3580:C I *L 0
*I *3581:A I *L 0
*CAP
1 3577_1 8.64e-05
2 3577_2 0.00040032
3 3577_3 0.00119016
*RES
1 *3578:Q 3577_1 0.56
2 3577_1 *3579:A 0
3 3577_1 3577_2 5.78667
4 3577_2 *3580:C 0
5 3577_2 3577_3 13.3
6 3577_3 *3581:A 0
*END
*D_NET *3582 0.00107472
*CONN
*I *3583:Q O *D _3842
*I *3584:C I *L 0
*I *3585:A I *L 0
*I *3586:C I *L 0
*CAP
1 3582_1 0
2 3582_2 6.048e-05
3 3582_3 0.00021024
4 3582_4 0
5 3582_5 0.000804
*RES
1 *3583:Q 3582_1 0
2 3582_1 3582_2 1.68
3 3582_2 *3584:C 0
4 3582_1 3582_3 3.17333
5 3582_3 3582_4 0
6 3582_4 *3585:A 0
7 3582_3 3582_5 9.24
8 3582_5 *3586:C 0
*END
*D_NET *3587 0.00099408
*CONN
*I *3588:Q O *D _3907
*I *3589:C I *L 0
*I *3590:B I *L 0
*I *3591:A I *L 0
*CAP
1 3587_1 0
2 3587_2 0.00020832
3 3587_3 0.00025032
4 3587_4 0.000192
5 3587_5 0.00034344
*RES
1 *3588:Q 3587_1 0
2 3587_1 3587_2 5.78667
3 3587_2 3587_3 4.62
4 3587_3 *3589:C 0
5 3587_2 3587_4 2.33333
6 3587_4 *3590:B 0
7 3587_1 3587_5 6.67333
8 3587_5 *3591:A 0
*END
*D_NET *3592 0.0018828
*CONN
*I *3593:Q O *D _3939
*I *3594:C I *L 0
*I *3595:C I *L 0
*I *3596:A I *L 0
*CAP
1 3592_1 2.04e-05
2 3592_2 0.00153336
3 3592_3 3.36e-05
4 3592_4 0.0001068
5 3592_5 0.00018864
*RES
1 *3593:Q 3592_1 0.233333
2 3592_1 3592_2 19.66
3 3592_2 3592_3 0.933333
4 3592_3 *3594:C 0
5 3592_2 3592_4 1.07333
6 3592_4 *3595:C 0
7 3592_1 3592_5 4.57333
8 3592_5 *3596:A 0
*END
*D_NET *3597 0.00167832
*CONN
*I *3598:Q O *D _3875
*I *3599:C I *L 0
*I *3600:A I *L 0
*I *3601:A I *L 0
*CAP
1 3597_1 1.344e-05
2 3597_2 0.00100128
3 3597_3 0.00016176
4 3597_4 0.00025704
5 3597_5 0.0002448
*RES
1 *3598:Q 3597_1 0.373333
2 3597_1 3597_2 27.8133
3 3597_2 3597_3 3.82667
4 3597_3 *3599:C 0
5 3597_2 3597_4 2.94
6 3597_4 *3600:A 0
7 3597_1 3597_5 2.8
8 3597_5 *3601:A 0
*END
*D_NET *3602 0.00094128
*CONN
*I *3603:Q O *D _3843
*I *3604:C I *L 0
*I *3605:C I *L 0
*I *3606:A I *L 0
*CAP
1 3602_1 2.04e-05
2 3602_2 0.00030312
3 3602_3 0.00019632
4 3602_4 0.0001308
5 3602_5 0.00029064
*RES
1 *3603:Q 3602_1 0.233333
2 3602_1 3602_2 7.42
3 3602_2 3602_3 3.45333
4 3602_3 *3604:C 0
5 3602_2 3602_4 1.63333
6 3602_4 *3605:C 0
7 3602_1 3602_5 5.74
8 3602_5 *3606:A 0
*END
*D_NET *3607 0.00211656
*CONN
*I *3608:Q O *D _3908
*I *3609:A I *L 0
*I *3610:C I *L 0
*I *3611:B I *L 0
*CAP
1 3607_1 0.00035808
2 3607_2 3.36e-05
3 3607_3 0.00160872
4 3607_4 0.00011616
5 3607_5 0
*RES
1 *3608:Q 3607_1 4.10667
2 3607_1 3607_2 0.933333
3 3607_2 *3609:A 0
4 3607_1 3607_3 16.1533
5 3607_3 3607_4 1.22667
6 3607_4 *3610:C 0
7 3607_3 3607_5 0
8 3607_5 *3611:B 0
*END
*D_NET *3612 0.00264312
*CONN
*I *3613:Q O *D _3940
*I *3614:A I *L 0
*I *3615:C I *L 0
*I *3616:C I *L 0
*CAP
1 3612_1 5.376e-05
2 3612_2 4.08e-05
3 3612_3 0.00144408
4 3612_4 0.00108408
5 3612_5 2.04e-05
*RES
1 *3613:Q 3612_1 1.49333
2 3612_1 3612_2 0.466667
3 3612_2 *3614:A 0
4 3612_1 3612_3 19.4467
5 3612_3 3612_4 12.38
6 3612_4 *3615:C 0
7 3612_3 3612_5 0.233333
8 3612_5 *3616:C 0
*END
*D_NET *3617 0.00114768
*CONN
*I *3618:Q O *D _3876
*I *3619:A I *L 0
*I *3620:A I *L 0
*I *3621:C I *L 0
*CAP
1 3617_1 5.376e-05
2 3617_2 4.08e-05
3 3617_3 0.00092352
4 3617_4 0.0001296
*RES
1 *3618:Q 3617_1 1.49333
2 3617_1 3617_2 0.466667
3 3617_2 *3619:A 0
4 3617_1 3617_3 7.98667
5 3617_3 *3620:A 0
6 3617_3 3617_4 0.84
7 3617_4 *3621:C 0
*END
*D_NET *3622 0.00214488
*CONN
*I *3623:Q O *D _3844
*I *3624:C I *L 0
*I *3625:C I *L 0
*I *3626:A I *L 0
*CAP
1 3622_1 6.048e-05
2 3622_2 0.00126864
3 3622_3 0.0003492
4 3622_4 0.00017472
5 3622_5 0.00029184
*RES
1 *3623:Q 3622_1 1.68
2 3622_1 3622_2 12.7733
3 3622_2 3622_3 5.16667
4 3622_3 *3624:C 0
5 3622_2 3622_4 2.98667
6 3622_4 *3625:C 0
7 3622_1 3622_5 3.70667
8 3622_5 *3626:A 0
*END
*D_NET *3627 0.00242424
*CONN
*I *3628:Q O *D _3909
*I *3629:A I *L 0
*I *3630:C I *L 0
*I *3631:B I *L 0
*CAP
1 3627_1 8.64e-05
2 3627_2 0.00204
3 3627_3 0.00023664
4 3627_4 6.12e-05
*RES
1 *3628:Q 3627_1 0.56
2 3627_1 *3629:A 0
3 3627_1 3627_2 23.2667
4 3627_2 3627_3 2.70667
5 3627_3 *3630:C 0
6 3627_2 3627_4 0.7
7 3627_4 *3631:B 0
*END
*D_NET *3632 0.00070848
*CONN
*I *3633:Q O *D _3941
*I *3634:A I *L 0
*I *3635:C I *L 0
*I *3636:C I *L 0
*CAP
1 3632_1 0.00017616
2 3632_2 0.0004308
3 3632_3 8.112e-05
4 3632_4 2.04e-05
*RES
1 *3633:Q 3632_1 2.89333
2 3632_1 *3634:A 0
3 3632_1 3632_2 3.96667
4 3632_2 3632_3 1.58667
5 3632_3 *3635:C 0
6 3632_2 3632_4 0.233333
7 3632_4 *3636:C 0
*END
*D_NET *3637 0.00144504
*CONN
*I *3638:Q O *D _3877
*I *3639:C I *L 0
*I *3640:A I *L 0
*I *3641:A I *L 0
*CAP
1 3637_1 0.00037992
2 3637_2 0.000306
3 3637_3 4.032e-05
4 3637_4 0.00030528
5 3637_5 0.00041352
*RES
1 *3638:Q 3637_1 5.55333
2 3637_1 3637_2 3.5
3 3637_2 3637_3 1.12
4 3637_3 *3639:C 0
5 3637_2 3637_4 4.48
6 3637_4 *3640:A 0
7 3637_1 3637_5 6.48667
8 3637_5 *3641:A 0
*END
*D_NET *3642 0.00149064
*CONN
*I *3643:Q O *D _3845
*I *3644:A I *L 0
*I *3645:C I *L 0
*I *3646:C I *L 0
*CAP
1 3642_1 0.000102
2 3642_2 0.00100032
3 3642_3 8.784e-05
4 3642_4 0.00030048
*RES
1 *3643:Q 3642_1 1.16667
2 3642_1 *3644:A 0
3 3642_1 3642_2 10.52
4 3642_2 3642_3 1.77333
5 3642_3 *3645:C 0
6 3642_2 3642_4 4.01333
7 3642_4 *3646:C 0
*END
*D_NET *3647 0.00111288
*CONN
*I *3648:Q O *D _3910
*I *3649:B I *L 0
*I *3650:A I *L 0
*I *3651:C I *L 0
*CAP
1 3647_1 0
2 3647_2 0.00050424
3 3647_3 0.000372
4 3647_4 2.04e-05
5 3647_5 0.00021624
*RES
1 *3648:Q 3647_1 0
2 3647_1 3647_2 6.58
3 3647_2 *3649:B 0
4 3647_1 3647_3 7
5 3647_3 3647_4 0.233333
6 3647_4 *3650:A 0
7 3647_4 3647_5 2.47333
8 3647_5 *3651:C 0
*END
*D_NET *3652 0.00119832
*CONN
*I *3653:Q O *D _3942
*I *3654:C I *L 0
*I *3655:C I *L 0
*I *3656:A I *L 0
*CAP
1 3652_1 7.464e-05
2 3652_2 0.00074088
3 3652_3 4.08e-05
4 3652_4 0.00011136
5 3652_5 0.00023064
*RES
1 *3653:Q 3652_1 1.07333
2 3652_1 3652_2 10.18
3 3652_2 3652_3 0.466667
4 3652_3 *3654:C 0
5 3652_2 3652_4 1.86667
6 3652_4 *3655:C 0
7 3652_1 3652_5 3.40667
8 3652_5 *3656:A 0
*END
*D_NET *3657 0.00116208
*CONN
*I *3658:Q O *D _3878
*I *3659:A I *L 0
*I *3660:C I *L 0
*I *3661:A I *L 0
*CAP
1 3657_1 0.00020304
2 3657_2 0.0004248
3 3657_3 6.12e-05
4 3657_4 0.00047304
*RES
1 *3658:Q 3657_1 3.64
2 3657_1 *3659:A 0
3 3657_1 3657_2 9.8
4 3657_2 3657_3 0.7
5 3657_3 *3660:C 0
6 3657_2 3657_4 7.60667
7 3657_4 *3661:A 0
*END
*D_NET *3662 0.00076392
*CONN
*I *3663:Q O *D _3846
*I *3664:C I *L 0
*I *3665:C I *L 0
*I *3666:A I *L 0
*CAP
1 3662_1 4.032e-05
2 3662_2 0.0001056
3 3662_3 0.00011544
4 3662_4 0.00038736
5 3662_5 0.0001152
*RES
1 *3663:Q 3662_1 1.12
2 3662_1 3662_2 0.733333
3 3662_2 3662_3 1.54
4 3662_3 *3664:C 0
5 3662_2 3662_4 4.76
6 3662_4 *3665:C 0
7 3662_1 3662_5 0.8
8 3662_5 *3666:A 0
*END
*D_NET *3667 0.00127536
*CONN
*I *3668:Q O *D _3911
*I *3669:B I *L 0
*I *3670:C I *L 0
*I *3671:A I *L 0
*CAP
1 3667_1 0
2 3667_2 2.016e-05
3 3667_3 8.784e-05
4 3667_4 0.00093672
5 3667_5 0.00023064
*RES
1 *3668:Q 3667_1 0
2 3667_1 3667_2 0.56
3 3667_2 3667_3 1.77333
4 3667_3 *3669:B 0
5 3667_2 3667_4 11.1533
6 3667_4 *3670:C 0
7 3667_1 3667_5 3.40667
8 3667_5 *3671:A 0
*END
*D_NET *3672 0.00119136
*CONN
*I *3673:Q O *D _3943
*I *3674:A I *L 0
*I *3675:C I *L 0
*I *3676:C I *L 0
*CAP
1 3672_1 0.00017616
2 3672_2 5.76e-05
3 3672_3 0.00086304
4 3672_4 9.456e-05
*RES
1 *3673:Q 3672_1 2.89333
2 3672_1 *3674:A 0
3 3672_1 3672_2 0.373333
4 3672_2 3672_3 10.64
5 3672_3 *3675:C 0
6 3672_2 3672_4 1.96
7 3672_4 *3676:C 0
*END
*D_NET *3677 0.001176
*CONN
*I *3678:Q O *D _3879
*I *3679:C I *L 0
*I *3680:A I *L 0
*I *3681:A I *L 0
*CAP
1 3677_1 0.0001428
2 3677_2 1.344e-05
3 3677_3 0.00024288
4 3677_4 4.032e-05
5 3677_5 0.00073656
*RES
1 *3678:Q 3677_1 1.63333
2 3677_1 3677_2 0.373333
3 3677_2 *3679:C 0
4 3677_1 3677_3 5.41333
5 3677_3 3677_4 1.12
6 3677_4 *3680:A 0
7 3677_3 3677_5 8.79333
8 3677_5 *3681:A 0
*END
*D_NET *3682 0.00215184
*CONN
*I *3683:Q O *D _3847
*I *3684:A I *L 0
*I *3685:C I *L 0
*I *3686:C I *L 0
*CAP
1 3682_1 0.000462
2 3682_2 2.04e-05
3 3682_3 0.00052032
4 3682_4 0.0002652
5 3682_5 0.00088392
*RES
1 *3683:Q 3682_1 4.71333
2 3682_1 3682_2 0.233333
3 3682_2 *3684:A 0
4 3682_2 3682_3 10.4533
5 3682_3 3682_4 3.03333
6 3682_4 *3685:C 0
7 3682_3 3682_5 12.46
8 3682_5 *3686:C 0
*END
*D_NET *3687 0.00078912
*CONN
*I *3688:Q O *D _3912
*I *3689:A I *L 0
*I *3690:B I *L 0
*I *3691:C I *L 0
*CAP
1 3687_1 2.688e-05
2 3687_2 4.08e-05
3 3687_3 2.016e-05
4 3687_4 0.00049728
5 3687_5 0.000204
*RES
1 *3688:Q 3687_1 0.746667
2 3687_1 3687_2 0.466667
3 3687_2 *3689:A 0
4 3687_1 3687_3 0.56
5 3687_3 3687_4 7.46667
6 3687_4 *3690:B 0
7 3687_3 3687_5 2.33333
8 3687_5 *3691:C 0
*END
*D_NET *3692 0.00191352
*CONN
*I *3693:Q O *D _3944
*I *3694:A I *L 0
*I *3695:C I *L 0
*I *3696:C I *L 0
*CAP
1 3692_1 0.00018
2 3692_2 0.0001728
3 3692_3 0.00123528
4 3692_4 2.016e-05
5 3692_5 0.00030528
*RES
1 *3693:Q 3692_1 1.77333
2 3692_1 3692_2 1.12
3 3692_2 *3694:A 0
4 3692_1 3692_3 15.4467
5 3692_3 3692_4 0.56
6 3692_4 *3695:C 0
7 3692_3 3692_5 4.48
8 3692_5 *3696:C 0
*END
*D_NET *3697 0.0011988
*CONN
*I *3698:Q O *D _3880
*I *3699:A I *L 0
*I *3700:C I *L 0
*I *3701:A I *L 0
*CAP
1 3697_1 8.64e-05
2 3697_2 0.00084984
3 3697_3 0
4 3697_4 0.00026256
*RES
1 *3698:Q 3697_1 0.56
2 3697_1 *3699:A 0
3 3697_1 3697_2 19.2733
4 3697_2 3697_3 0
5 3697_3 *3700:C 0
6 3697_3 3697_4 6.62667
7 3697_4 *3701:A 0
*END
*D_NET *3702 0.00229872
*CONN
*I *3703:Q O *D _3848
*I *3704:A I *L 0
*I *3705:C I *L 0
*I *3706:C I *L 0
*CAP
1 3702_1 4.032e-05
2 3702_2 0.0002244
3 3702_3 0.00176664
4 3702_4 0.00015216
5 3702_5 0.0001152
*RES
1 *3703:Q 3702_1 1.12
2 3702_1 3702_2 2.56667
3 3702_2 *3704:A 0
4 3702_1 3702_3 22.0733
5 3702_3 3702_4 2.33333
6 3702_4 *3705:C 0
7 3702_3 3702_5 0.746667
8 3702_5 *3706:C 0
*END
*D_NET *3707 0.00046728
*CONN
*I *3708:Q O *D _3913
*I *3709:C I *L 0
*I *3710:B I *L 0
*I *3711:A I *L 0
*CAP
1 3707_1 0.0001632
2 3707_2 2.688e-05
3 3707_3 4.08e-05
4 3707_4 6.096e-05
5 3707_5 0.00017544
*RES
1 *3708:Q 3707_1 1.86667
2 3707_1 3707_2 0.746667
3 3707_2 3707_3 0.466667
4 3707_3 *3709:C 0
5 3707_2 3707_4 1.02667
6 3707_4 *3710:B 0
7 3707_1 3707_5 3.87333
8 3707_5 *3711:A 0
*END
*D_NET *3712 0.00257472
*CONN
*I *3713:Q O *D _3945
*I *3714:C I *L 0
*I *3715:C I *L 0
*I *3716:A I *L 0
*CAP
1 3712_1 0.0004656
2 3712_2 0.00066288
3 3712_3 4.704e-05
4 3712_4 0.0013992
*RES
1 *3713:Q 3712_1 5.04
2 3712_1 3712_2 9.49333
3 3712_2 *3714:C 0
4 3712_1 3712_3 1.30667
5 3712_3 *3715:C 0
6 3712_1 3712_4 17.0667
7 3712_4 *3716:A 0
*END
*D_NET *3717 0.00269424
*CONN
*I *3718:Q O *D _3881
*I *3719:A I *L 0
*I *3720:A I *L 0
*I *3721:C I *L 0
*CAP
1 3717_1 3.36e-05
2 3717_2 0.0008592
3 3717_3 2.04e-05
4 3717_4 0.001458
5 3717_5 0.00032304
*RES
1 *3718:Q 3717_1 0.933333
2 3717_1 3717_2 9.2
3 3717_2 3717_3 0.233333
4 3717_3 *3719:A 0
5 3717_3 3717_4 15.2333
6 3717_4 *3720:A 0
7 3717_1 3717_5 3.41333
8 3717_5 *3721:C 0
*END
*D_NET *3722 0.00063624
*CONN
*I *3723:Q O *D _3849
*I *3724:A I *L 0
*I *3725:C I *L 0
*I *3726:C I *L 0
*CAP
1 3722_1 8.64e-05
2 3722_2 2.04e-05
3 3722_3 0.00041424
4 3722_4 0.0001152
*RES
1 *3723:Q 3722_1 0.56
2 3722_1 *3724:A 0
3 3722_1 3722_2 0.233333
4 3722_2 3722_3 5.50667
5 3722_3 *3725:C 0
6 3722_2 3722_4 1.86667
7 3722_4 *3726:C 0
*END
*D_NET *3727 0.00164832
*CONN
*I *3728:Q O *D _3914
*I *3729:A I *L 0
*I *3730:C I *L 0
*I *3731:B I *L 0
*CAP
1 3727_1 0.000102
2 3727_2 0.00048768
3 3727_3 0.00062184
4 3727_4 0.0004368
*RES
1 *3728:Q 3727_1 1.16667
2 3727_1 *3729:A 0
3 3727_1 3727_2 10.08
4 3727_2 3727_3 10.4067
5 3727_3 *3730:C 0
6 3727_2 3727_4 5.13333
7 3727_4 *3731:B 0
*END
*D_NET *3732 0.00140928
*CONN
*I *3733:Q O *D _3946
*I *3734:C I *L 0
*I *3735:A I *L 0
*I *3736:C I *L 0
*CAP
1 3732_1 0.00059328
2 3732_2 0.00047784
3 3732_3 4.032e-05
4 3732_4 0.00029784
*RES
1 *3733:Q 3732_1 8.21333
2 3732_1 3732_2 5.18
3 3732_2 *3734:C 0
4 3732_1 3732_3 1.12
5 3732_3 *3735:A 0
6 3732_1 3732_4 3.40667
7 3732_4 *3736:C 0
*END
*D_NET *3737 0.00132288
*CONN
*I *3738:Q O *D _3882
*I *3739:A I *L 0
*I *3740:C I *L 0
*I *3741:A I *L 0
*CAP
1 3737_1 8.64e-05
2 3737_2 0.00076032
3 3737_3 2.04e-05
4 3737_4 0.00045576
*RES
1 *3738:Q 3737_1 0.56
2 3737_1 *3739:A 0
3 3737_1 3737_2 8.25333
4 3737_2 3737_3 0.233333
5 3737_3 *3740:C 0
6 3737_3 3737_4 4.59333
7 3737_4 *3741:A 0
*END
*D_NET *3742 0.00232104
*CONN
*I *3743:Q O *D _3850
*I *3744:A I *L 0
*I *3745:C I *L 0
*I *3746:C I *L 0
*CAP
1 3742_1 0.00034968
2 3742_2 4.08e-05
3 3742_3 0.00085824
4 3742_4 8.16e-05
5 3742_5 0.00099072
*RES
1 *3743:Q 3742_1 4.15333
2 3742_1 3742_2 0.466667
3 3742_2 *3744:A 0
4 3742_1 3742_3 11.84
5 3742_3 3742_4 0.933333
6 3742_4 *3745:C 0
7 3742_3 3742_5 14.1867
8 3742_5 *3746:C 0
*END
*D_NET *3747 0.00157896
*CONN
*I *3748:Q O *D _3915
*I *3749:B I *L 0
*I *3750:C I *L 0
*I *3751:A I *L 0
*CAP
1 3747_1 8.64e-05
2 3747_2 0.000408
3 3747_3 0.00010776
4 3747_4 0.00078
5 3747_5 0.0001968
*RES
1 *3748:Q 3747_1 0.56
2 3747_1 3747_2 4.66667
3 3747_2 3747_3 2.66
4 3747_3 *3749:B 0
5 3747_2 3747_4 9.8
6 3747_4 *3750:C 0
7 3747_1 3747_5 2.8
8 3747_5 *3751:A 0
*END
*D_NET *3752 0.00211872
*CONN
*I *3753:Q O *D _3947
*I *3754:C I *L 0
*I *3755:A I *L 0
*I *3756:C I *L 0
*CAP
1 3752_1 0
2 3752_2 4.032e-05
3 3752_3 0.00021
4 3752_4 0.00021024
5 3752_5 0.00165816
*RES
1 *3753:Q 3752_1 0
2 3752_1 3752_2 1.12
3 3752_2 *3754:C 0
4 3752_1 3752_3 3.5
5 3752_3 3752_4 3.17333
6 3752_4 *3755:A 0
7 3752_3 3752_5 20.3933
8 3752_5 *3756:C 0
*END
*D_NET *3757 0.0014148
*CONN
*I *3758:Q O *D _3883
*I *3759:A I *L 0
*I *3760:A I *L 0
*I *3761:C I *L 0
*CAP
1 3757_1 8.64e-05
2 3757_2 0.00022944
3 3757_3 2.016e-05
4 3757_4 0.0010788
*RES
1 *3758:Q 3757_1 0.56
2 3757_1 *3759:A 0
3 3757_1 3757_2 5.04
4 3757_2 3757_3 0.56
5 3757_3 *3760:A 0
6 3757_2 3757_4 15.6333
7 3757_4 *3761:C 0
*END
*D_NET *3762 0.00098856
*CONN
*I *3763:Q O *D _3851
*I *3764:C I *L 0
*I *3765:C I *L 0
*I *3766:A I *L 0
*CAP
1 3762_1 0.0002088
2 3762_2 0.0006108
3 3762_3 8.16e-05
4 3762_4 8.736e-05
*RES
1 *3763:Q 3762_1 1.96
2 3762_1 3762_2 8.54
3 3762_2 *3764:C 0
4 3762_1 3762_3 0.933333
5 3762_3 *3765:C 0
6 3762_1 3762_4 2.42667
7 3762_4 *3766:A 0
*END
*D_NET *3767 0.00138
*CONN
*I *3768:Q O *D _3916
*I *3769:B I *L 0
*I *3770:A I *L 0
*I *3771:C I *L 0
*CAP
1 3767_1 0
2 3767_2 8.736e-05
3 3767_3 0.00054672
4 3767_4 0.00012576
5 3767_5 0.00062016
*RES
1 *3768:Q 3767_1 0
2 3767_1 3767_2 2.42667
3 3767_2 3767_3 11.8533
4 3767_3 *3769:B 0
5 3767_2 3767_4 1.29333
6 3767_4 *3770:A 0
7 3767_1 3767_5 5.82667
8 3767_5 *3771:C 0
*END
*D_NET *3772 0.0009612
*CONN
*I *3773:Q O *D _3948
*I *3774:A I *L 0
*I *3775:C I *L 0
*I *3776:C I *L 0
*CAP
1 3772_1 8.64e-05
2 3772_2 0.00035208
3 3772_3 0.00050232
4 3772_4 2.04e-05
*RES
1 *3773:Q 3772_1 0.56
2 3772_1 *3774:A 0
3 3772_1 3772_2 5.04667
4 3772_2 3772_3 6.95333
5 3772_3 *3775:C 0
6 3772_2 3772_4 0.233333
7 3772_4 *3776:C 0
*END
*D_NET *3777 0.0019932
*CONN
*I *3778:Q O *D _3884
*I *3779:C I *L 0
*I *3780:A I *L 0
*I *3781:A I *L 0
*CAP
1 3777_1 0.00173592
2 3777_2 0.00014904
3 3777_3 0
4 3777_4 0.00010824
*RES
1 *3778:Q 3777_1 27.5267
2 3777_1 *3779:C 0
3 3777_1 3777_2 2.47333
4 3777_2 3777_3 0
5 3777_3 *3780:A 0
6 3777_2 3777_4 2.00667
7 3777_4 *3781:A 0
*END
*D_NET *3782 0.00256176
*CONN
*I *3783:Q O *D _3852
*I *3784:A I *L 0
*I *3785:C I *L 0
*I *3786:C I *L 0
*CAP
1 3782_1 8.64e-05
2 3782_2 0.00146424
3 3782_3 4.08e-05
4 3782_4 0.00097032
*RES
1 *3783:Q 3782_1 0.56
2 3782_1 *3784:A 0
3 3782_1 3782_2 15.8733
4 3782_2 3782_3 0.466667
5 3782_3 *3785:C 0
6 3782_2 3782_4 23.2867
7 3782_4 *3786:C 0
*END
*D_NET *3787 0.00106536
*CONN
*I *3788:Q O *D _3917
*I *3789:A I *L 0
*I *3790:C I *L 0
*I *3791:B I *L 0
*CAP
1 3787_1 5.76e-05
2 3787_2 5.76e-05
3 3787_3 0.00058488
4 3787_4 0.00016128
5 3787_5 0.000204
*RES
1 *3788:Q 3787_1 0.373333
2 3787_1 3787_2 0.373333
3 3787_2 *3789:A 0
4 3787_1 3787_3 9.14667
5 3787_3 3787_4 4.48
6 3787_4 *3790:C 0
7 3787_3 3787_5 2.33333
8 3787_5 *3791:B 0
*END
*D_NET *3792 0.00086424
*CONN
*I *3793:Q O *D _3949
*I *3794:A I *L 0
*I *3795:C I *L 0
*I *3796:C I *L 0
*CAP
1 3792_1 0.00026424
2 3792_2 0.00028128
3 3792_3 0.00015576
4 3792_4 0.00016296
*RES
1 *3793:Q 3792_1 3.22
2 3792_1 *3794:A 0
3 3792_1 3792_2 3.21333
4 3792_2 3792_3 2.66
5 3792_3 *3795:C 0
6 3792_2 3792_4 2.19333
7 3792_4 *3796:C 0
*END
*D_NET *3797 0.00178008
*CONN
*I *3798:Q O *D _3885
*I *3799:A I *L 0
*I *3800:A I *L 0
*I *3801:C I *L 0
*CAP
1 3797_1 0.000102
2 3797_2 0.00069144
3 3797_3 0.0003312
4 3797_4 0.00065544
*RES
1 *3798:Q 3797_1 1.16667
2 3797_1 *3799:A 0
3 3797_1 3797_2 10.8733
4 3797_2 3797_3 3.64
5 3797_3 *3800:A 0
6 3797_2 3797_4 13.2067
7 3797_4 *3801:C 0
*END
*D_NET *3802 0.00188904
*CONN
*I *3803:Q O *D _3853
*I *3804:A I *L 0
*I *3805:C I *L 0
*I *3806:C I *L 0
*CAP
1 3802_1 8.64e-05
2 3802_2 0.00063864
3 3802_3 2.04e-05
4 3802_4 0.0011436
*RES
1 *3803:Q 3802_1 0.56
2 3802_1 *3804:A 0
3 3802_1 3802_2 8.07333
4 3802_2 3802_3 0.233333
5 3802_3 *3805:C 0
6 3802_3 3802_4 20.7667
7 3802_4 *3806:C 0
*END
*D_NET *3807 0.00119688
*CONN
*I *3808:Q O *D _3918
*I *3809:A I *L 0
*I *3810:C I *L 0
*I *3811:B I *L 0
*CAP
1 3807_1 8.64e-05
2 3807_2 0.00020352
3 3807_3 2.04e-05
4 3807_4 0.00088656
*RES
1 *3808:Q 3807_1 0.56
2 3807_1 *3809:A 0
3 3807_1 3807_2 2.98667
4 3807_2 3807_3 0.233333
5 3807_3 *3810:C 0
6 3807_3 3807_4 10.92
7 3807_4 *3811:B 0
*END
*D_NET *3812 0.00182496
*CONN
*I *3813:Q O *D _3950
*I *3814:C I *L 0
*I *3815:C I *L 0
*I *3816:A I *L 0
*CAP
1 3812_1 4.08e-05
2 3812_2 0.00093504
3 3812_3 0.00048888
4 3812_4 4.92e-05
5 3812_5 0.00031104
*RES
1 *3813:Q 3812_1 0.466667
2 3812_1 3812_2 20.7733
3 3812_2 3812_3 6.58
4 3812_3 *3814:C 0
5 3812_2 3812_4 0.7
6 3812_4 *3815:C 0
7 3812_1 3812_5 5.97333
8 3812_5 *3816:A 0
*END
*D_NET *3817 0.00070392
*CONN
*I *3818:Q O *D _3886
*I *3819:A I *L 0
*I *3820:C I *L 0
*I *3821:A I *L 0
*CAP
1 3817_1 2.688e-05
2 3817_2 4.08e-05
3 3817_3 0.0002352
4 3817_4 0.00031104
5 3817_5 9e-05
*RES
1 *3818:Q 3817_1 0.746667
2 3817_1 3817_2 0.466667
3 3817_2 *3819:A 0
4 3817_1 3817_3 6.53333
5 3817_3 3817_4 5.97333
6 3817_4 *3820:C 0
7 3817_3 3817_5 1.16667
8 3817_5 *3821:A 0
*END
*D_NET *3822 0.00151416
*CONN
*I *3823:Q O *D _3854
*I *3824:C I *L 0
*I *3825:C I *L 0
*I *3826:A I *L 0
*CAP
1 3822_1 0
2 3822_2 0.0006516
3 3822_3 0.0005652
4 3822_4 0
5 3822_5 0.00029736
*RES
1 *3823:Q 3822_1 0
2 3822_1 3822_2 11.1
3 3822_2 3822_3 9.24667
4 3822_3 *3824:C 0
5 3822_2 3822_4 0
6 3822_4 *3825:C 0
7 3822_1 3822_5 5.92667
8 3822_5 *3826:A 0
*END
*D_NET *3827 0.00062208
*CONN
*I *3828:Q O *D _3919
*I *3829:B I *L 0
*I *3830:C I *L 0
*I *3831:A I *L 0
*CAP
1 3827_1 4.032e-05
2 3827_2 0.00030624
3 3827_3 9.072e-05
4 3827_4 8.784e-05
5 3827_5 9.696e-05
*RES
1 *3828:Q 3827_1 1.12
2 3827_1 3827_2 3.64
3 3827_2 *3829:B 0
4 3827_1 3827_3 2.52
5 3827_3 3827_4 1.77333
6 3827_4 *3830:C 0
7 3827_3 3827_5 1.09333
8 3827_5 *3831:A 0
*END
*D_NET *3832 0.00063168
*CONN
*I *3833:Q O *D _3951
*I *3834:C I *L 0
*I *3835:A I *L 0
*I *3836:C I *L 0
*CAP
1 3832_1 2.04e-05
2 3832_2 4.08e-05
3 3832_3 0.00018864
4 3832_4 0.00019824
5 3832_5 0.0001836
*RES
1 *3833:Q 3832_1 0.233333
2 3832_1 3832_2 0.466667
3 3832_2 3832_3 4.57333
4 3832_3 *3834:C 0
5 3832_2 3832_4 3.24
6 3832_4 *3835:A 0
7 3832_1 3832_5 2.1
8 3832_5 *3836:C 0
*END
*D_NET *3837 0.00061248
*CONN
*I *3838:Q O *D _3887
*I *3839:A I *L 0
*I *3840:C I *L 0
*I *3841:A I *L 0
*CAP
1 3837_1 0
2 3837_2 0.00022656
3 3837_3 0.00025128
4 3837_4 2.04e-05
5 3837_5 0.00011424
*RES
1 *3838:Q 3837_1 0
2 3837_1 3837_2 2.61333
3 3837_2 *3839:A 0
4 3837_1 3837_3 3.31333
5 3837_3 3837_4 0.233333
6 3837_4 *3840:C 0
7 3837_4 3837_5 1.30667
8 3837_5 *3841:A 0
*END
*D_NET *3842 0.001698
*CONN
*I *3843:Q O *D _3855
*I *3844:A I *L 0
*I *3845:C I *L 0
*I *3846:C I *L 0
*CAP
1 3842_1 0.00025104
2 3842_2 2.04e-05
3 3842_3 0.00067512
4 3842_4 0.00023064
5 3842_5 0.0005208
*RES
1 *3843:Q 3842_1 3.64
2 3842_1 3842_2 0.233333
3 3842_2 *3844:A 0
4 3842_2 3842_3 7.08667
5 3842_3 3842_4 3.40667
6 3842_4 *3845:C 0
7 3842_3 3842_5 5.6
8 3842_5 *3846:C 0
*END
*D_NET *3847 0.0006708
*CONN
*I *3848:Q O *D _3920
*I *3849:A I *L 0
*I *3850:C I *L 0
*I *3851:B I *L 0
*CAP
1 3847_1 0.00010464
2 3847_2 0.00023688
3 3847_3 2.04e-05
4 3847_4 0.00030888
*RES
1 *3848:Q 3847_1 1.68
2 3847_1 *3849:A 0
3 3847_1 3847_2 4.24667
4 3847_2 3847_3 0.233333
5 3847_3 *3850:C 0
6 3847_3 3847_4 3.68667
7 3847_4 *3851:B 0
*END
*D_NET *3852 0.00093432
*CONN
*I *3853:Q O *D _3952
*I *3854:A I *L 0
*I *3855:C I *L 0
*I *3856:C I *L 0
*CAP
1 3852_1 0.00029664
2 3852_2 0.00016248
3 3852_3 8.736e-05
4 3852_4 4.08e-05
5 3852_5 0.00034704
*RES
1 *3853:Q 3852_1 3.04
2 3852_1 3852_2 2.84667
3 3852_2 *3854:A 0
4 3852_1 3852_3 2.42667
5 3852_3 3852_4 0.466667
6 3852_4 *3855:C 0
7 3852_3 3852_5 4.57333
8 3852_5 *3856:C 0
*END
*D_NET *3857 0.00142872
*CONN
*I *3858:Q O *D _3888
*I *3859:A I *L 0
*I *3860:C I *L 0
*I *3861:A I *L 0
*CAP
1 3857_1 0.0001596
2 3857_2 0.0009636
3 3857_3 0.00028512
4 3857_4 2.04e-05
*RES
1 *3858:Q 3857_1 1.54
2 3857_1 *3859:A 0
3 3857_1 3857_2 13.7667
4 3857_2 3857_3 3.92
5 3857_3 *3860:C 0
6 3857_2 3857_4 0.233333
7 3857_4 *3861:A 0
*END
*D_NET *3862 0.00104424
*CONN
*I *3863:Q O *D _3856
*I *3864:C I *L 0
*I *3865:A I *L 0
*I *3866:C I *L 0
*CAP
1 3862_1 7.464e-05
2 3862_2 0.00040536
3 3862_3 0.00015528
4 3862_4 0.00040896
*RES
1 *3863:Q 3862_1 1.07333
2 3862_1 3862_2 8.26
3 3862_2 *3864:C 0
4 3862_1 3862_3 3.31333
5 3862_3 *3865:A 0
6 3862_1 3862_4 3.62667
7 3862_4 *3866:C 0
*END
*D_NET *3867 0.00118584
*CONN
*I *3868:Q O *D _3921
*I *3869:B I *L 0
*I *3870:A I *L 0
*I *3871:C I *L 0
*CAP
1 3867_1 0.00027816
2 3867_2 0.0006432
3 3867_3 2.04e-05
4 3867_4 0.00024408
*RES
1 *3868:Q 3867_1 4.06
2 3867_1 3867_2 11.2
3 3867_2 *3869:B 0
4 3867_1 3867_3 0.233333
5 3867_3 *3870:A 0
6 3867_3 3867_4 3.78
7 3867_4 *3871:C 0
*END
*D_NET *3872 0.00147168
*CONN
*I *3873:Q O *D _3953
*I *3874:A I *L 0
*I *3875:C I *L 0
*I *3876:C I *L 0
*CAP
1 3872_1 0.000258
2 3872_2 6.768e-05
3 3872_3 0.00099888
4 3872_4 9.792e-05
5 3872_5 4.92e-05
*RES
1 *3873:Q 3872_1 3.5
2 3872_1 3872_2 1.21333
3 3872_2 *3874:A 0
4 3872_1 3872_3 9.74667
5 3872_3 3872_4 1.49333
6 3872_4 *3875:C 0
7 3872_3 3872_5 0.7
8 3872_5 *3876:C 0
*END
*D_NET *3877 0.00096864
*CONN
*I *3878:Q O *D _3889
*I *3879:C I *L 0
*I *3880:A I *L 0
*I *3881:A I *L 0
*CAP
1 3877_1 0.0002688
2 3877_2 4.08e-05
3 3877_3 2.04e-05
4 3877_4 0.00022416
5 3877_5 0.00041448
*RES
1 *3878:Q 3877_1 3.17333
2 3877_1 3877_2 0.466667
3 3877_2 3877_3 0.233333
4 3877_3 *3879:C 0
5 3877_3 3877_4 2.89333
6 3877_4 *3880:A 0
7 3877_1 3877_5 5.18
8 3877_5 *3881:A 0
*END
*D_NET *3882 0.0012888
*CONN
*I *3883:Q O *D _3857
*I *3884:C I *L 0
*I *3885:A I *L 0
*I *3886:C I *L 0
*CAP
1 3882_1 0.00014232
2 3882_2 0.00053256
3 3882_3 0
4 3882_4 0.00061392
*RES
1 *3883:Q 3882_1 2.28667
2 3882_1 3882_2 7.23333
3 3882_2 *3884:C 0
4 3882_1 3882_3 0
5 3882_3 *3885:A 0
6 3882_3 3882_4 8.65333
7 3882_4 *3886:C 0
*END
*D_NET *3887 0.0007596
*CONN
*I *3888:Q O *D _3922
*I *3889:C I *L 0
*I *3890:B I *L 0
*I *3891:A I *L 0
*CAP
1 3887_1 6.12e-05
2 3887_2 4.032e-05
3 3887_3 0.0001224
4 3887_4 0.00020328
5 3887_5 0.0003324
*RES
1 *3888:Q 3887_1 0.7
2 3887_1 3887_2 1.12
3 3887_2 3887_3 1.4
4 3887_3 *3889:C 0
5 3887_2 3887_4 3.31333
6 3887_4 *3890:B 0
7 3887_1 3887_5 4.9
8 3887_5 *3891:A 0
*END
*D_NET *3892 0.00176088
*CONN
*I *3893:Q O *D _3954
*I *3894:A I *L 0
*I *3895:C I *L 0
*I *3896:C I *L 0
*CAP
1 3892_1 0.00011136
2 3892_2 2.04e-05
3 3892_3 0.00141408
4 3892_4 8.784e-05
5 3892_5 0.0001272
*RES
1 *3893:Q 3892_1 1.86667
2 3892_1 3892_2 0.233333
3 3892_2 *3894:A 0
4 3892_2 3892_3 19.1467
5 3892_3 3892_4 1.77333
6 3892_4 *3895:C 0
7 3892_3 3892_5 1.30667
8 3892_5 *3896:C 0
*END
*D_NET *3897 0.00106008
*CONN
*I *3898:Q O *D _3890
*I *3899:A I *L 0
*I *3900:A I *L 0
*I *3901:C I *L 0
*CAP
1 3897_1 8.64e-05
2 3897_2 0.00011424
3 3897_3 0.00066216
4 3897_4 0.00019728
*RES
1 *3898:Q 3897_1 0.56
2 3897_1 *3899:A 0
3 3897_1 3897_2 3.17333
4 3897_2 3897_3 6.34
5 3897_3 *3900:A 0
6 3897_2 3897_4 4.21333
7 3897_4 *3901:C 0
*END
*D_NET *3902 0.00124632
*CONN
*I *3903:Q O *D _3858
*I *3904:C I *L 0
*I *3905:C I *L 0
*I *3906:A I *L 0
*CAP
1 3902_1 0.0001152
2 3902_2 0.0002064
3 3902_3 0.00060768
4 3902_4 0.00016128
5 3902_5 0.00015576
*RES
1 *3903:Q 3902_1 0.746667
2 3902_1 3902_2 3.2
3 3902_2 3902_3 5.45333
4 3902_3 *3904:C 0
5 3902_2 3902_4 4.48
6 3902_4 *3905:C 0
7 3902_1 3902_5 2.66
8 3902_5 *3906:A 0
*END
*D_NET *3907 0.00185688
*CONN
*I *3908:Q O *D _3923
*I *3909:B I *L 0
*I *3910:A I *L 0
*I *3911:C I *L 0
*CAP
1 3907_1 4.704e-05
2 3907_2 0.0011892
3 3907_3 8.808e-05
4 3907_4 0.000102
5 3907_5 0.00043056
*RES
1 *3908:Q 3907_1 1.30667
2 3907_1 3907_2 11.9667
3 3907_2 *3909:B 0
4 3907_1 3907_3 1.44667
5 3907_3 3907_4 1.16667
6 3907_4 *3910:A 0
7 3907_3 3907_5 11.2933
8 3907_5 *3911:C 0
*END
*D_NET *3912 0.00237744
*CONN
*I *3913:Q O *D _3955
*I *3914:A I *L 0
*I *3915:C I *L 0
*I *3916:C I *L 0
*CAP
1 3912_1 0.0003684
2 3912_2 9.456e-05
3 3912_3 0.0005268
4 3912_4 0.00035016
5 3912_5 0.00103752
*RES
1 *3913:Q 3912_1 6.67333
2 3912_1 3912_2 1.96
3 3912_2 *3914:A 0
4 3912_1 3912_3 3.83333
5 3912_3 3912_4 8.72667
6 3912_4 *3915:C 0
7 3912_3 3912_5 11.34
8 3912_5 *3916:C 0
*END
*D_NET *3917 0.00175176
*CONN
*I *3918:Q O *D _3891
*I *3919:C I *L 0
*I *3920:A I *L 0
*I *3921:A I *L 0
*CAP
1 3917_1 1.344e-05
2 3917_2 0.0008724
3 3917_3 0.00014184
4 3917_4 0.00054216
5 3917_5 0.00018192
*RES
1 *3918:Q 3917_1 0.373333
2 3917_1 3917_2 6.23333
3 3917_2 3917_3 2.94
4 3917_3 *3919:C 0
5 3917_2 3917_4 8.72667
6 3917_4 *3920:A 0
7 3917_1 3917_5 4.38667
8 3917_5 *3921:A 0
*END
*D_NET *3922 0.00149256
*CONN
*I *3923:Q O *D _3859
*I *3924:A I *L 0
*I *3925:C I *L 0
*I *3926:C I *L 0
*CAP
1 3922_1 0.00014784
2 3922_2 0.00099288
3 3922_3 2.04e-05
4 3922_4 0.00033144
*RES
1 *3923:Q 3922_1 4.10667
2 3922_1 *3924:A 0
3 3922_1 3922_2 16.2867
4 3922_2 3922_3 0.233333
5 3922_3 *3925:C 0
6 3922_3 3922_4 4.34
7 3922_4 *3926:C 0
*END
*D_NET *3927 0.00130896
*CONN
*I *3928:Q O *D _3924
*I *3929:A I *L 0
*I *3930:C I *L 0
*I *3931:B I *L 0
*CAP
1 3927_1 8.64e-05
2 3927_2 0.00058608
3 3927_3 8.16e-05
4 3927_4 0.00055488
*RES
1 *3928:Q 3927_1 0.56
2 3927_1 *3929:A 0
3 3927_1 3927_2 14.28
4 3927_2 3927_3 0.933333
5 3927_3 *3930:C 0
6 3927_2 3927_4 10.08
7 3927_4 *3931:B 0
*END
*D_NET *3932 0.00144144
*CONN
*I *3933:Q O *D _3956
*I *3934:A I *L 0
*I *3935:C I *L 0
*I *3936:C I *L 0
*CAP
1 3932_1 0
2 3932_2 0.00017472
3 3932_3 2.04e-05
4 3932_4 0.0010908
5 3932_5 0.00015552
*RES
1 *3933:Q 3932_1 0
2 3932_1 3932_2 4.85333
3 3932_2 3932_3 0.233333
4 3932_3 *3934:A 0
5 3932_3 3932_4 22.0733
6 3932_4 *3935:C 0
7 3932_1 3932_5 2.98667
8 3932_5 *3936:C 0
*END
*D_NET *3937 0.00057432
*CONN
*I *3938:Q O *D _3892
*I *3939:A I *L 0
*I *3940:A I *L 0
*I *3941:C I *L 0
*CAP
1 3937_1 4.704e-05
2 3937_2 6.96e-05
3 3937_3 0.00029808
4 3937_4 2.04e-05
5 3937_5 0.0001392
*RES
1 *3938:Q 3937_1 1.30667
2 3937_1 3937_2 0.933333
3 3937_2 *3939:A 0
4 3937_1 3937_3 4.94667
5 3937_3 3937_4 0.233333
6 3937_4 *3940:A 0
7 3937_4 3937_5 1.30667
8 3937_5 *3941:C 0
*END
*D_NET *3942 0.00149376
*CONN
*I *3943:Q O *D _3860
*I *3944:C I *L 0
*I *3945:C I *L 0
*I *3946:A I *L 0
*CAP
1 3942_1 2.688e-05
2 3942_2 0.00106272
3 3942_3 0.00015456
4 3942_4 0.0001068
5 3942_5 0.0001428
*RES
1 *3943:Q 3942_1 0.746667
2 3942_1 3942_2 28.1867
3 3942_2 3942_3 4.29333
4 3942_3 *3944:C 0
5 3942_2 3942_4 1.07333
6 3942_4 *3945:C 0
7 3942_1 3942_5 1.63333
8 3942_5 *3946:A 0
*END
*D_NET *3947 0.00045288
*CONN
*I *3948:Y O *D _2235
*I *3949:B I *L 0
*I *3950:B I *L 0
*I *3951:A I *L 0
*CAP
1 3947_1 8.4e-06
2 3947_2 0.00012096
3 3947_3 5.76e-05
4 3947_4 0.00026592
*RES
1 *3948:Y 3947_1 0.233333
2 3947_1 3947_2 3.36
3 3947_2 *3949:B 0
4 3947_2 3947_3 0.373333
5 3947_3 *3950:B 0
6 3947_1 3947_4 6.72
7 3947_4 *3951:A 0
*END
*D_NET *3952 0.00102696
*CONN
*I *3953:Q O *D _3995
*I *3954:A I *L 0
*I *3955:A I *L 0
*CAP
1 3952_1 0.00096936
2 3952_2 5.76e-05
*RES
1 *3953:Q 3952_1 19.3667
2 3952_1 *3954:A 0
3 3952_1 3952_2 0.373333
4 3952_2 *3955:A 0
*END
*D_NET *3956 0.00010656
*CONN
*I *3957:Q O *D _3959
*I *3958:A I *L 0
*I *3959:A I *L 0
*CAP
1 3956_1 8.64e-05
2 3956_2 2.016e-05
*RES
1 *3957:Q 3956_1 0.56
2 3956_1 *3958:A 0
3 3956_1 3956_2 0.56
4 3956_2 *3959:A 0
*END
*D_NET *3960 0.0005484
*CONN
*I *3961:Q O *D _3958
*I *3962:A I *L 0
*I *3963:A I *L 0
*CAP
1 3960_1 8.64e-05
2 3960_2 0.000462
*RES
1 *3961:Q 3960_1 0.56
2 3960_1 *3962:A 0
3 3960_1 3960_2 5.83333
4 3960_2 *3963:A 0
*END
*D_NET *3964 0.00046728
*CONN
*I *3965:Y O *D _1853
*I *3966:A I *L 0
*I *3967:A I *L 0
*CAP
1 3964_1 0.00029808
2 3964_2 0.0001692
*RES
1 *3965:Y 3964_1 4.94667
2 3964_1 *3966:A 0
3 3964_1 3964_2 3.03333
4 3964_2 *3967:A 0
*END
*D_NET *3968 0.0003864
*CONN
*I *3969:Y O *D _1854
*I *3970:S I *L 0
*I *3971:B I *L 0
*CAP
1 3968_1 0.00010104
2 3968_2 4.08e-05
3 3968_3 0.00024456
*RES
1 *3969:Y 3968_1 2.47333
2 3968_1 3968_2 0.466667
3 3968_2 *3970:S 0
4 3968_1 3968_3 3.12667
5 3968_3 *3971:B 0
*END
*D_NET *3972 0.00209496
*CONN
*I *3973:Y O *D _1856
*I *3974:B I *L 0
*I *3975:B I *L 0
*CAP
1 3972_1 0.0003552
2 3972_2 2.688e-05
3 3972_3 0.00171288
*RES
1 *3973:Y 3972_1 4.2
2 3972_1 3972_2 0.746667
3 3972_2 *3974:B 0
4 3972_1 3972_3 14.3133
5 3972_3 *3975:B 0
*END
*D_NET *3976 0.00012168
*CONN
*P *3976 O
*I *3977:A I *L 0
*I *3978:B I *L 0
*CAP
1 3976_1 3.36e-05
2 3976_2 2.688e-05
3 3976_3 6.12e-05
*RES
1 *3976 3976_1 0.933333
2 3976_1 3976_2 0.746667
3 3976_2 *3977:A 0
4 3976_1 3976_3 0.7
5 3976_3 *3978:B 0
*END
*D_NET *3979 0.00018936
*CONN
*P *3979 O
*I *3980:A I *L 0
*I *3981:C I *L 0
*CAP
1 3979_1 4.032e-05
2 3979_2 0.00014904
3 3979_3 0
*RES
1 *3979 3979_1 1.12
2 3979_1 3979_2 2.47333
3 3979_2 *3980:A 0
4 3979_1 3979_3 0
5 3979_3 *3981:C 0
*END
*D_NET *3982 0.00078672
*CONN
*I *3983:Q O *D _3829
*I *3984:C I *L 0
*I *3985:A I *L 0
*CAP
1 3982_1 0.00033408
2 3982_2 0.0001812
3 3982_3 0.00027144
*RES
1 *3983:Q 3982_1 4.28
2 3982_1 3982_2 3.5
3 3982_2 *3984:C 0
4 3982_1 3982_3 3.87333
5 3982_3 *3985:A 0
*END
*D_NET *3986 0.0005496
*CONN
*I *3987:Y O *D _1861
*I *3988:A I *L 0
*I *3989:A I *L 0
*CAP
1 3986_1 4.032e-05
2 3986_2 0.00012168
3 3986_3 0.0003876
*RES
1 *3987:Y 3986_1 1.12
2 3986_1 3986_2 2.38
3 3986_2 *3988:A 0
4 3986_1 3986_3 4.43333
5 3986_3 *3989:A 0
*END
*D_NET *3990 0.000228
*CONN
*I *3991:Y O *D _1863
*I *3992:B I *L 0
*I *3993:B I *L 0
*CAP
1 3990_1 0.0001224
2 3990_2 7.2e-05
3 3990_3 3.36e-05
*RES
1 *3991:Y 3990_1 0.793333
2 3990_1 3990_2 0.466667
3 3990_2 *3992:B 0
4 3990_1 3990_3 0.933333
5 3990_3 *3993:B 0
*END
*D_NET *3994 0.00014352
*CONN
*P *3994 O
*I *3995:A I *L 0
*I *3996:A I *L 0
*CAP
1 3994_1 5.712e-05
2 3994_2 8.64e-05
*RES
1 *3994 3994_1 1.58667
2 3994_1 *3995:A 0
3 3994_1 3994_2 0.56
4 3994_2 *3996:A 0
*END
*D_NET *3997 0.00026424
*CONN
*P *3997 O
*I *3998:B I *L 0
*I *3999:B I *L 0
*CAP
1 3997_1 2.688e-05
2 3997_2 0.00019656
3 3997_3 4.08e-05
*RES
1 *3997 3997_1 0.746667
2 3997_1 3997_2 2.00667
3 3997_2 *3998:B 0
4 3997_1 3997_3 0.466667
5 3997_3 *3999:B 0
*END
*D_NET *4000 0.0003564
*CONN
*I *4001:Y O *D _1867
*I *4002:B I *L 0
*I *4003:A I *L 0
*CAP
1 4000_1 0.0001152
2 4000_2 0.0002412
*RES
1 *4001:Y 4000_1 0.746667
2 4000_1 *4002:B 0
3 4000_1 4000_2 2.47333
4 4000_2 *4003:A 0
*END
*D_NET *4004 0.0002028
*CONN
*I *4005:Y O *D _1868
*I *4006:A I *L 0
*I *4007:A I *L 0
*CAP
1 4004_1 0.00012888
2 4004_2 0
3 4004_3 7.392e-05
*RES
1 *4005:Y 4004_1 1.91333
2 4004_1 4004_2 0
3 4004_2 *4006:A 0
4 4004_1 4004_3 2.05333
5 4004_3 *4007:A 0
*END
*D_NET *4008 0.0002508
*CONN
*I *4009:Y O *D _1869
*I *4010:B I *L 0
*I *4011:B I *L 0
*CAP
1 4008_1 0.00016968
2 4008_2 0
3 4008_3 8.112e-05
*RES
1 *4009:Y 4008_1 2.38
2 4008_1 4008_2 0
3 4008_2 *4010:B 0
4 4008_1 4008_3 1.58667
5 4008_3 *4011:B 0
*END
*D_NET *4012 0.00139176
*CONN
*I *4013:Y O *D _1871
*I *4014:C I *L 0
*I *4015:C I *L 0
*CAP
1 4012_1 0.00126384
2 4012_2 2.04e-05
3 4012_3 0.00010752
*RES
1 *4013:Y 4012_1 19.1733
2 4012_1 4012_2 0.233333
3 4012_2 *4014:C 0
4 4012_2 4012_3 2.98667
5 4012_3 *4015:C 0
*END
*D_NET *4016 9.12e-05
*CONN
*I *4017:Y O *D _1874
*I *4018:A I *L 0
*I *4019:B I *L 0
*CAP
1 4016_1 3.36e-05
2 4016_2 5.76e-05
*RES
1 *4017:Y 4016_1 0.933333
2 4016_1 *4018:A 0
3 4016_1 4016_2 0.373333
4 4016_2 *4019:B 0
*END
*D_NET *4020 0.00091392
*CONN
*I *4021:Y O *D _1876
*I *4022:C I *L 0
*I *4023:C I *L 0
*CAP
1 4020_1 0.00048
2 4020_2 0.0001632
3 4020_3 0.00027072
*RES
1 *4021:Y 4020_1 9.33333
2 4020_1 4020_2 1.86667
3 4020_2 *4022:C 0
4 4020_1 4020_3 4.85333
5 4020_3 *4023:C 0
*END
*D_NET *4024 0.0006888
*CONN
*I *4025:Q O *D _3926
*I *4026:A I *L 0
*I *4027:C I *L 0
*CAP
1 4024_1 5.376e-05
2 4024_2 8.4e-06
3 4024_3 0.00062664
*RES
1 *4025:Q 4024_1 1.49333
2 4024_1 4024_2 0.233333
3 4024_2 *4026:A 0
4 4024_1 4024_3 15.0733
5 4024_3 *4027:C 0
*END
*D_NET *4028 0.00308112
*CONN
*I *4029:Y O *D _1888
*I *4030:A I *L 0
*I *4031:A I *L 0
*CAP
1 4028_1 0.00044832
2 4028_2 6.12e-05
3 4028_3 0.0025716
*RES
1 *4029:Y 4028_1 8.77333
2 4028_1 4028_2 0.7
3 4028_2 *4030:A 0
4 4028_1 4028_3 39.5667
5 4028_3 *4031:A 0
*END
*D_NET *4032 0.00178848
*CONN
*I *4033:Y O *D _1889
*I *4034:B I *L 0
*I *4035:A I *L 0
*CAP
1 4032_1 0.00034776
2 4032_2 0.00029352
3 4032_3 0.0011472
*RES
1 *4033:Y 4032_1 6.76667
2 4032_1 4032_2 6.48667
3 4032_2 *4034:B 0
4 4032_1 4032_3 15.8667
5 4032_3 *4035:A 0
*END
*D_NET *4036 0.0003276
*CONN
*I *4037:Q O *D _3962
*I *4038:C I *L 0
*I *4039:A I *L 0
*CAP
1 4036_1 8.64e-05
2 4036_2 0.0002412
*RES
1 *4037:Q 4036_1 0.56
2 4036_1 *4038:C 0
3 4036_1 4036_2 2.47333
4 4036_2 *4039:A 0
*END
*D_NET *4040 0.00035904
*CONN
*I *4041:Y O *D _1899
*I *4042:A I *L 0
*I *4043:A I *L 0
*CAP
1 4040_1 0.00031176
2 4040_2 2.04e-05
3 4040_3 2.688e-05
*RES
1 *4041:Y 4040_1 4.99333
2 4040_1 4040_2 0.233333
3 4040_2 *4042:A 0
4 4040_2 4040_3 0.746667
5 4040_3 *4043:A 0
*END
*D_NET *4044 0.00051864
*CONN
*I *4045:Y O *D _1900
*I *4046:B I *L 0
*I *4047:B I *L 0
*CAP
1 4044_1 0.0001632
2 4044_2 2.04e-05
3 4044_3 0.00033504
*RES
1 *4045:Y 4044_1 1.86667
2 4044_1 4044_2 0.233333
3 4044_2 *4046:B 0
4 4044_2 4044_3 4.37333
5 4044_3 *4047:B 0
*END
*D_NET *4048 0.00079392
*CONN
*I *4049:Y O *D _1905
*I *4050:B I *L 0
*I *4051:B I *L 0
*CAP
1 4048_1 0.0002844
2 4048_2 2.04e-05
3 4048_3 0.00048912
*RES
1 *4049:Y 4048_1 4.9
2 4048_1 4048_2 0.233333
3 4048_2 *4050:B 0
4 4048_2 4048_3 6.25333
5 4048_3 *4051:B 0
*END
*D_NET *4052 0.00021048
*CONN
*P *4052 O
*I *4053:A I *L 0
*I *4054:A I *L 0
*CAP
1 4052_1 2.688e-05
2 4052_2 2.04e-05
3 4052_3 0.0001632
*RES
1 *4052 4052_1 0.746667
2 4052_1 4052_2 0.233333
3 4052_2 *4053:A 0
4 4052_2 4052_3 1.86667
5 4052_3 *4054:A 0
*END
*D_NET *4055 0.000144
*CONN
*I *4056:Y O *D _2001
*I *4057:B I *L 0
*I *4058:A I *L 0
*CAP
1 4055_1 8.64e-05
2 4055_2 5.76e-05
*RES
1 *4056:Y 4055_1 0.56
2 4055_1 *4057:B 0
3 4055_1 4055_2 0.373333
4 4055_2 *4058:A 0
*END
*D_NET *4059 0.000306
*CONN
*I *4060:Y O *D _2005
*I *4061:B I *L 0
*I *4062:B I *L 0
*CAP
1 4059_1 0.0001476
2 4059_2 0.0001584
*RES
1 *4060:Y 4059_1 1.26
2 4059_1 *4061:B 0
3 4059_1 4059_2 1.02667
4 4059_2 *4062:B 0
*END
*D_NET *4063 0.00037128
*CONN
*I *4064:Q O *D _3733
*I *4065:A I *L 0
*I *4066:A I *L 0
*CAP
1 4063_1 0.0001824
2 4063_2 2.04e-05
3 4063_3 0.00016848
*RES
1 *4064:Q 4063_1 3.73333
2 4063_1 4063_2 0.233333
3 4063_2 *4065:A 0
4 4063_2 4063_3 4.01333
5 4063_3 *4066:A 0
*END
*D_NET *4067 0.00027384
*CONN
*P *4067 O
*I *4068:A I *L 0
*I *4069:A I *L 0
*CAP
1 4067_1 0.00021624
2 4067_2 5.76e-05
*RES
1 *4067 4067_1 2.47333
2 4067_1 *4068:A 0
3 4067_1 4067_2 0.373333
4 4067_2 *4069:A 0
*END
*D_NET *4070 0.00071088
*CONN
*I *4071:Q O *D _3734
*I *4072:A I *L 0
*I *4073:A I *L 0
*CAP
1 4070_1 2.016e-05
2 4070_2 0.00014544
3 4070_3 0.00054528
*RES
1 *4071:Q 4070_1 0.56
2 4070_1 4070_2 2.14667
3 4070_2 *4072:A 0
4 4070_1 4070_3 4.34667
5 4070_3 *4073:A 0
*END
*D_NET *4074 0.00030528
*CONN
*P *4074 O
*I *4075:A I *L 0
*I *4076:A I *L 0
*CAP
1 4074_1 0.0002448
2 4074_2 1.344e-05
3 4074_3 4.704e-05
*RES
1 *4074 4074_1 2.06667
2 4074_1 4074_2 0.373333
3 4074_2 *4075:A 0
4 4074_1 4074_3 1.30667
5 4074_3 *4076:A 0
*END
*D_NET *4077 0.00067848
*CONN
*I *4078:Q O *D _3735
*I *4079:A I *L 0
*I *4080:A I *L 0
*CAP
1 4077_1 0.00018936
2 4077_2 0.00022704
3 4077_3 0.00026208
*RES
1 *4078:Q 4077_1 3.59333
2 4077_1 4077_2 1.96
3 4077_2 *4079:A 0
4 4077_1 4077_3 3.08
5 4077_3 *4080:A 0
*END
*D_NET *4081 0.00025872
*CONN
*P *4081 O
*I *4082:A I *L 0
*I *4083:A I *L 0
*CAP
1 4081_1 0.00020496
2 4081_2 0
3 4081_3 5.376e-05
*RES
1 *4081 4081_1 5.69333
2 4081_1 4081_2 0
3 4081_2 *4082:A 0
4 4081_1 4081_3 1.49333
5 4081_3 *4083:A 0
*END
*D_NET *4084 0.00025056
*CONN
*I *4085:Q O *D _3736
*I *4086:A I *L 0
*I *4087:A I *L 0
*CAP
1 4084_1 6.048e-05
2 4084_2 4.08e-05
3 4084_3 0.00014928
*RES
1 *4085:Q 4084_1 1.68
2 4084_1 4084_2 0.466667
3 4084_2 *4086:A 0
4 4084_1 4084_3 2.14667
5 4084_3 *4087:A 0
*END
*D_NET *4088 0.000384
*CONN
*P *4088 O
*I *4089:A I *L 0
*I *4090:A I *L 0
*CAP
1 4088_1 0.0003264
2 4088_2 5.76e-05
*RES
1 *4088 4088_1 3.73333
2 4088_1 *4089:A 0
3 4088_1 4088_2 0.373333
4 4088_2 *4090:A 0
*END
*D_NET *4091 0.00126264
*CONN
*I *4092:Q O *D _3737
*I *4093:A I *L 0
*I *4094:A I *L 0
*CAP
1 4091_1 0.0007668
2 4091_2 0.00047544
3 4091_3 2.04e-05
*RES
1 *4092:Q 4091_1 8.76667
2 4091_1 4091_2 6.20667
3 4091_2 *4093:A 0
4 4091_1 4091_3 0.233333
5 4091_3 *4094:A 0
*END
*D_NET *4095 0.00079344
*CONN
*P *4095 O
*I *4096:A I *L 0
*I *4097:A I *L 0
*CAP
1 4095_1 0.0005784
2 4095_2 3.36e-05
3 4095_3 0.00018144
*RES
1 *4095 4095_1 5.26667
2 4095_1 4095_2 0.933333
3 4095_2 *4096:A 0
4 4095_1 4095_3 5.04
5 4095_3 *4097:A 0
*END
*D_NET *4098 0.00019248
*CONN
*I *4099:Q O *D _3738
*I *4100:A I *L 0
*I *4101:A I *L 0
*CAP
1 4098_1 2.688e-05
2 4098_2 7.2e-05
3 4098_3 9.36e-05
*RES
1 *4099:Q 4098_1 0.746667
2 4098_1 4098_2 0.466667
3 4098_2 *4100:A 0
4 4098_1 4098_3 0.606667
5 4098_3 *4101:A 0
*END
*D_NET *4102 0.00027384
*CONN
*P *4102 O
*I *4103:A I *L 0
*I *4104:A I *L 0
*CAP
1 4102_1 0.00021624
2 4102_2 5.76e-05
*RES
1 *4102 4102_1 2.47333
2 4102_1 *4103:A 0
3 4102_1 4102_2 0.373333
4 4102_2 *4104:A 0
*END
*D_NET *4105 0.00049104
*CONN
*I *4106:Q O *D _3739
*I *4107:A I *L 0
*I *4108:A I *L 0
*CAP
1 4105_1 1.344e-05
2 4105_2 0.00020016
3 4105_3 0.00027744
*RES
1 *4106:Q 4105_1 0.373333
2 4105_1 4105_2 2.33333
3 4105_2 *4107:A 0
4 4105_1 4105_3 2.57333
5 4105_3 *4108:A 0
*END
*D_NET *4109 0.000384
*CONN
*P *4109 O
*I *4110:A I *L 0
*I *4111:A I *L 0
*CAP
1 4109_1 0.0003264
2 4109_2 5.76e-05
*RES
1 *4109 4109_1 3.73333
2 4109_1 *4110:A 0
3 4109_1 4109_2 0.373333
4 4109_2 *4111:A 0
*END
*D_NET *4112 0.00055632
*CONN
*I *4113:Q O *D _3740
*I *4114:A I *L 0
*I *4115:A I *L 0
*CAP
1 4112_1 7.392e-05
2 4112_2 0.000102
3 4112_3 0.0003804
*RES
1 *4113:Q 4112_1 2.05333
2 4112_1 4112_2 1.16667
3 4112_2 *4114:A 0
4 4112_1 4112_3 4.9
5 4112_3 *4115:A 0
*END
*D_NET *4116 0.0005076
*CONN
*P *4116 O
*I *4117:A I *L 0
*I *4118:A I *L 0
*CAP
1 4116_1 0.00021624
2 4116_2 2.04e-05
3 4116_3 0.00027096
*RES
1 *4116 4116_1 2.47333
2 4116_1 4116_2 0.233333
3 4116_2 *4117:A 0
4 4116_2 4116_3 4.52667
5 4116_3 *4118:A 0
*END
*D_NET *4119 0.00023424
*CONN
*I *4120:Q O *D _3741
*I *4121:A I *L 0
*I *4122:A I *L 0
*CAP
1 4119_1 8.64e-05
2 4119_2 0.00014784
*RES
1 *4120:Q 4119_1 0.56
2 4119_1 *4121:A 0
3 4119_1 4119_2 4.10667
4 4119_2 *4122:A 0
*END
*D_NET *4123 0.0006492
*CONN
*P *4123 O
*I *4124:A I *L 0
*I *4125:A I *L 0
*CAP
1 4123_1 0.0005916
2 4123_2 5.76e-05
*RES
1 *4123 4123_1 6.76667
2 4123_1 *4124:A 0
3 4123_1 4123_2 0.373333
4 4123_2 *4125:A 0
*END
*D_NET *4126 0.00023472
*CONN
*I *4127:Q O *D _3742
*I *4128:A I *L 0
*I *4129:A I *L 0
*CAP
1 4126_1 8.64e-05
2 4126_2 0.00014832
*RES
1 *4127:Q 4126_1 0.56
2 4126_1 *4128:A 0
3 4126_1 4126_2 3.45333
4 4126_2 *4129:A 0
*END
*D_NET *4130 0.0002004
*CONN
*P *4130 O
*I *4131:A I *L 0
*I *4132:A I *L 0
*CAP
1 4130_1 0.0001428
2 4130_2 5.76e-05
*RES
1 *4130 4130_1 1.63333
2 4130_1 *4131:A 0
3 4130_1 4130_2 0.373333
4 4130_2 *4132:A 0
*END
*D_NET *4133 0.000246
*CONN
*I *4134:Q O *D _3743
*I *4135:A I *L 0
*I *4136:A I *L 0
*CAP
1 4133_1 0.0001596
2 4133_2 8.64e-05
*RES
1 *4134:Q 4133_1 1.54
2 4133_1 *4135:A 0
3 4133_1 4133_2 0.56
4 4133_2 *4136:A 0
*END
*D_NET *4137 0.00037944
*CONN
*P *4137 O
*I *4138:A I *L 0
*I *4139:A I *L 0
*CAP
1 4137_1 0.0001836
2 4137_2 0.0001632
3 4137_3 3.264e-05
*RES
1 *4137 4137_1 2.1
2 4137_1 4137_2 1.86667
3 4137_2 *4138:A 0
4 4137_1 4137_3 0.373333
5 4137_3 *4139:A 0
*END
*D_NET *4140 0.00167832
*CONN
*I *4141:Q O *D _3744
*I *4142:A I *L 0
*I *4143:A I *L 0
*CAP
1 4140_1 0.00037872
2 4140_2 2.04e-05
3 4140_3 0.0012792
*RES
1 *4141:Q 4140_1 7.18667
2 4140_1 4140_2 0.233333
3 4140_2 *4142:A 0
4 4140_2 4140_3 14.8667
5 4140_3 *4143:A 0
*END
*D_NET *4144 0.000384
*CONN
*P *4144 O
*I *4145:A I *L 0
*I *4146:A I *L 0
*CAP
1 4144_1 0.0003264
2 4144_2 5.76e-05
*RES
1 *4144 4144_1 3.73333
2 4144_1 *4145:A 0
3 4144_1 4144_2 0.373333
4 4144_2 *4146:A 0
*END
*D_NET *4147 0.00276264
*CONN
*I *4148:Q O *D _3745
*I *4149:A I *L 0
*I *4150:A I *L 0
*CAP
1 4147_1 0.00014256
2 4147_2 2.04e-05
3 4147_3 0.00259968
*RES
1 *4148:Q 4147_1 1.96
2 4147_1 4147_2 0.233333
3 4147_2 *4149:A 0
4 4147_2 4147_3 21.1467
5 4147_3 *4150:A 0
*END
*D_NET *4151 0.00167784
*CONN
*P *4151 O
*I *4152:A I *L 0
*I *4153:A I *L 0
*CAP
1 4151_1 0.00072408
2 4151_2 2.04e-05
3 4151_3 0.00093336
*RES
1 *4151 4151_1 7.51333
2 4151_1 4151_2 0.233333
3 4151_2 *4152:A 0
4 4151_2 4151_3 11.26
5 4151_3 *4153:A 0
*END
*D_NET *4154 0.00043008
*CONN
*I *4155:Q O *D _3746
*I *4156:A I *L 0
*I *4157:A I *L 0
*CAP
1 4154_1 0.00026448
2 4154_2 7.2e-05
3 4154_3 9.36e-05
*RES
1 *4155:Q 4154_1 4.01333
2 4154_1 4154_2 0.466667
3 4154_2 *4156:A 0
4 4154_1 4154_3 0.606667
5 4154_3 *4157:A 0
*END
*D_NET *4158 0.00027384
*CONN
*P *4158 O
*I *4159:A I *L 0
*I *4160:A I *L 0
*CAP
1 4158_1 0.00021624
2 4158_2 5.76e-05
*RES
1 *4158 4158_1 2.47333
2 4158_1 *4159:A 0
3 4158_1 4158_2 0.373333
4 4158_2 *4160:A 0
*END
*D_NET *4161 0.00055824
*CONN
*I *4162:Q O *D _3747
*I *4163:A I *L 0
*I *4164:A I *L 0
*CAP
1 4161_1 0.00047184
2 4161_2 8.64e-05
*RES
1 *4162:Q 4161_1 5.88
2 4161_1 *4163:A 0
3 4161_1 4161_2 0.56
4 4161_2 *4164:A 0
*END
*D_NET *4165 0.00062232
*CONN
*P *4165 O
*I *4166:A I *L 0
*I *4167:A I *L 0
*CAP
1 4165_1 7.464e-05
2 4165_2 0.00040488
3 4165_3 0.0001428
*RES
1 *4165 4165_1 1.07333
2 4165_1 4165_2 8.91333
3 4165_2 *4166:A 0
4 4165_1 4165_3 1.63333
5 4165_3 *4167:A 0
*END
*D_NET *4168 0.00053544
*CONN
*I *4169:Q O *D _3748
*I *4170:A I *L 0
*I *4171:A I *L 0
*CAP
1 4168_1 0.00024456
2 4168_2 0.000102
3 4168_3 0.00018888
*RES
1 *4169:Q 4168_1 3.12667
2 4168_1 4168_2 1.16667
3 4168_2 *4170:A 0
4 4168_1 4168_3 4.24667
5 4168_3 *4171:A 0
*END
*D_NET *4172 0.0007764
*CONN
*P *4172 O
*I *4173:A I *L 0
*I *4174:A I *L 0
*CAP
1 4172_1 0.0007188
2 4172_2 5.76e-05
*RES
1 *4172 4172_1 6.36667
2 4172_1 *4173:A 0
3 4172_1 4172_2 0.373333
4 4172_2 *4174:A 0
*END
*D_NET *4175 0.00052152
*CONN
*I *4176:Q O *D _3749
*I *4177:A I *L 0
*I *4178:A I *L 0
*CAP
1 4175_1 0.00039192
2 4175_2 0.0001296
*RES
1 *4176:Q 4175_1 7.88667
2 4175_1 *4177:A 0
3 4175_1 4175_2 0.84
4 4175_2 *4178:A 0
*END
*D_NET *4179 0.0011844
*CONN
*P *4179 O
*I *4180:A I *L 0
*I *4181:A I *L 0
*CAP
1 4179_1 0.00104736
2 4179_2 8.784e-05
3 4179_3 4.92e-05
*RES
1 *4179 4179_1 27.2933
2 4179_1 4179_2 1.77333
3 4179_2 *4180:A 0
4 4179_1 4179_3 0.7
5 4179_3 *4181:A 0
*END
*D_NET *4182 0.00031344
*CONN
*I *4183:Q O *D _3750
*I *4184:A I *L 0
*I *4185:A I *L 0
*CAP
1 4182_1 2.016e-05
2 4182_2 0.0001308
3 4182_3 0.00016248
*RES
1 *4183:Q 4182_1 0.56
2 4182_1 4182_2 1.63333
3 4182_2 *4184:A 0
4 4182_1 4182_3 2.84667
5 4182_3 *4185:A 0
*END
*D_NET *4186 0.00027384
*CONN
*P *4186 O
*I *4187:A I *L 0
*I *4188:A I *L 0
*CAP
1 4186_1 0.00021624
2 4186_2 5.76e-05
*RES
1 *4186 4186_1 2.47333
2 4186_1 *4187:A 0
3 4186_1 4186_2 0.373333
4 4186_2 *4188:A 0
*END
*D_NET *4189 0.00143256
*CONN
*I *4190:Q O *D _3751
*I *4191:A I *L 0
*I *4192:A I *L 0
*CAP
1 4189_1 0.00134616
2 4189_2 8.64e-05
*RES
1 *4190:Q 4189_1 12.3267
2 4189_1 *4191:A 0
3 4189_1 4189_2 0.56
4 4189_2 *4192:A 0
*END
*D_NET *4193 0.00046968
*CONN
*P *4193 O
*I *4194:A I *L 0
*I *4195:A I *L 0
*CAP
1 4193_1 0.00041208
2 4193_2 5.76e-05
*RES
1 *4193 4193_1 4.71333
2 4193_1 *4194:A 0
3 4193_1 4193_2 0.373333
4 4193_2 *4195:A 0
*END
*D_NET *4196 0.00050232
*CONN
*I *4197:Q O *D _3752
*I *4198:A I *L 0
*I *4199:A I *L 0
*CAP
1 4196_1 0.00025752
2 4196_2 0.0002448
*RES
1 *4197:Q 4196_1 4.15333
2 4196_1 *4198:A 0
3 4196_1 4196_2 1.58667
4 4196_2 *4199:A 0
*END
*D_NET *4200 0.00085608
*CONN
*P *4200 O
*I *4201:A I *L 0
*I *4202:A I *L 0
*CAP
1 4200_1 0.000714
2 4200_2 5.424e-05
3 4200_3 8.784e-05
*RES
1 *4200 4200_1 8.16667
2 4200_1 4200_2 0.84
3 4200_2 *4201:A 0
4 4200_1 4200_3 1.77333
5 4200_3 *4202:A 0
*END
*D_NET *4203 0.00094488
*CONN
*I *4204:Q O *D _3753
*I *4205:A I *L 0
*I *4206:A I *L 0
*CAP
1 4203_1 8.784e-05
2 4203_2 0.00028656
3 4203_3 0.00057048
*RES
1 *4204:Q 4203_1 1.77333
2 4203_1 4203_2 6.62667
3 4203_2 *4205:A 0
4 4203_1 4203_3 7.51333
5 4203_3 *4206:A 0
*END
*D_NET *4207 0.0007464
*CONN
*P *4207 O
*I *4208:A I *L 0
*I *4209:A I *L 0
*CAP
1 4207_1 0.00066576
2 4207_2 0
3 4207_3 8.064e-05
*RES
1 *4207 4207_1 8.49333
2 4207_1 4207_2 0
3 4207_2 *4208:A 0
4 4207_2 4207_3 2.24
5 4207_3 *4209:A 0
*END
*D_NET *4210 0.00038424
*CONN
*I *4211:Q O *D _3754
*I *4212:A I *L 0
*I *4213:A I *L 0
*CAP
1 4210_1 8.64e-05
2 4210_2 0.00029784
*RES
1 *4211:Q 4210_1 0.56
2 4210_1 *4212:A 0
3 4210_1 4210_2 5.27333
4 4210_2 *4213:A 0
*END
*D_NET *4214 0.0002004
*CONN
*P *4214 O
*I *4215:A I *L 0
*I *4216:A I *L 0
*CAP
1 4214_1 0.0001428
2 4214_2 5.76e-05
*RES
1 *4214 4214_1 1.63333
2 4214_1 *4215:A 0
3 4214_1 4214_2 0.373333
4 4214_2 *4216:A 0
*END
*D_NET *4217 0.00061392
*CONN
*I *4218:Q O *D _3755
*I *4219:A I *L 0
*I *4220:A I *L 0
*CAP
1 4217_1 9.12e-05
2 4217_2 4.08e-05
3 4217_3 0.00048192
*RES
1 *4218:Q 4217_1 1.30667
2 4217_1 4217_2 0.466667
3 4217_2 *4219:A 0
4 4217_1 4217_3 6.72
5 4217_3 *4220:A 0
*END
*D_NET *4221 0.0002004
*CONN
*P *4221 O
*I *4222:A I *L 0
*I *4223:A I *L 0
*CAP
1 4221_1 0.0001428
2 4221_2 5.76e-05
*RES
1 *4221 4221_1 1.63333
2 4221_1 *4222:A 0
3 4221_1 4221_2 0.373333
4 4221_2 *4223:A 0
*END
*D_NET *4224 0.00063
*CONN
*I *4225:Q O *D _3756
*I *4226:A I *L 0
*I *4227:A I *L 0
*CAP
1 4224_1 0
2 4224_2 0.00036504
3 4224_3 0.00026496
*RES
1 *4225:Q 4224_1 0
2 4224_1 4224_2 7.14
3 4224_2 *4226:A 0
4 4224_1 4224_3 3.36
5 4224_3 *4227:A 0
*END
*D_NET *4228 0.00128568
*CONN
*P *4228 O
*I *4229:A I *L 0
*I *4230:A I *L 0
*CAP
1 4228_1 0.00122808
2 4228_2 5.76e-05
*RES
1 *4228 4228_1 14.0467
2 4228_1 *4229:A 0
3 4228_1 4228_2 0.373333
4 4228_2 *4230:A 0
*END
*D_NET *4231 0.00073128
*CONN
*I *4232:Q O *D _3757
*I *4233:A I *L 0
*I *4234:A I *L 0
*CAP
1 4231_1 0.000102
2 4231_2 0.00035904
3 4231_3 0.00027024
*RES
1 *4232:Q 4231_1 1.16667
2 4231_1 4231_2 5.97333
3 4231_2 *4233:A 0
4 4231_1 4231_3 5.50667
5 4231_3 *4234:A 0
*END
*D_NET *4235 0.000384
*CONN
*P *4235 O
*I *4236:A I *L 0
*I *4237:A I *L 0
*CAP
1 4235_1 0.0003264
2 4235_2 5.76e-05
*RES
1 *4235 4235_1 3.73333
2 4235_1 *4236:A 0
3 4235_1 4235_2 0.373333
4 4235_2 *4237:A 0
*END
*D_NET *4238 0.0003504
*CONN
*I *4239:Q O *D _3758
*I *4240:A I *L 0
*I *4241:A I *L 0
*CAP
1 4238_1 8.64e-05
2 4238_2 0.000264
*RES
1 *4239:Q 4238_1 0.56
2 4238_1 *4240:A 0
3 4238_1 4238_2 4.66667
4 4238_2 *4241:A 0
*END
*D_NET *4242 0.0006168
*CONN
*P *4242 O
*I *4243:A I *L 0
*I *4244:A I *L 0
*CAP
1 4242_1 0.00037104
2 4242_2 0.00011496
3 4242_3 0.0001308
*RES
1 *4242 4242_1 8.30667
2 4242_1 4242_2 2.19333
3 4242_2 *4243:A 0
4 4242_1 4242_3 1.63333
5 4242_3 *4244:A 0
*END
*D_NET *4245 0.0002028
*CONN
*I *4246:Q O *D _3759
*I *4247:A I *L 0
*I *4248:A I *L 0
*CAP
1 4245_1 0.00014184
2 4245_2 6.096e-05
3 4245_3 0
*RES
1 *4246:Q 4245_1 2.94
2 4245_1 4245_2 1.02667
3 4245_2 *4247:A 0
4 4245_1 4245_3 0
5 4245_3 *4248:A 0
*END
*D_NET *4249 0.00013872
*CONN
*P *4249 O
*I *4250:A I *L 0
*I *4251:A I *L 0
*CAP
1 4249_1 8.112e-05
2 4249_2 5.76e-05
*RES
1 *4249 4249_1 1.58667
2 4249_1 *4250:A 0
3 4249_1 4249_2 0.373333
4 4249_2 *4251:A 0
*END
*D_NET *4252 0.00021024
*CONN
*I *4253:Q O *D _3760
*I *4254:A I *L 0
*I *4255:A I *L 0
*CAP
1 4252_1 4.704e-05
2 4252_2 0.0001428
3 4252_3 2.04e-05
*RES
1 *4253:Q 4252_1 1.30667
2 4252_1 4252_2 1.63333
3 4252_2 *4254:A 0
4 4252_1 4252_3 0.233333
5 4252_3 *4255:A 0
*END
*D_NET *4256 0.00038496
*CONN
*P *4256 O
*I *4257:A I *L 0
*I *4258:A I *L 0
*CAP
1 4256_1 2.016e-05
2 4256_2 8.64e-05
3 4256_3 0.0002784
*RES
1 *4256 4256_1 0.56
2 4256_1 4256_2 0.56
3 4256_2 *4257:A 0
4 4256_1 4256_3 2.61333
5 4256_3 *4258:A 0
*END
*D_NET *4259 0.00020232
*CONN
*I *4260:Q O *D _3761
*I *4261:A I *L 0
*I *4262:A I *L 0
*CAP
1 4259_1 0.00013464
2 4259_2 2.688e-05
3 4259_3 4.08e-05
*RES
1 *4260:Q 4259_1 1.54
2 4259_1 4259_2 0.746667
3 4259_2 *4261:A 0
4 4259_1 4259_3 0.466667
5 4259_3 *4262:A 0
*END
*D_NET *4263 0.00067848
*CONN
*P *4263 O
*I *4264:A I *L 0
*I *4265:A I *L 0
*CAP
1 4263_1 0.0005496
2 4263_2 4.08e-05
3 4263_3 8.808e-05
*RES
1 *4263 4263_1 5.46667
2 4263_1 4263_2 0.466667
3 4263_2 *4264:A 0
4 4263_1 4263_3 1.44667
5 4263_3 *4265:A 0
*END
*D_NET *4266 0.00070296
*CONN
*I *4267:Q O *D _3762
*I *4268:A I *L 0
*I *4269:A I *L 0
*CAP
1 4266_1 0.00026976
2 4266_2 2.04e-05
3 4266_3 0.0004128
*RES
1 *4267:Q 4266_1 4.29333
2 4266_1 4266_2 0.233333
3 4266_2 *4268:A 0
4 4266_2 4266_3 5.6
5 4266_3 *4269:A 0
*END
*D_NET *4270 0.00105528
*CONN
*P *4270 O
*I *4271:A I *L 0
*I *4272:A I *L 0
*CAP
1 4270_1 0.0004164
2 4270_2 0.00061848
3 4270_3 2.04e-05
*RES
1 *4270 4270_1 3.9
2 4270_1 4270_2 7.51333
3 4270_2 *4271:A 0
4 4270_1 4270_3 0.233333
5 4270_3 *4272:A 0
*END
*D_NET *4273 0.00091488
*CONN
*I *4274:Q O *D _3763
*I *4275:A I *L 0
*I *4276:A I *L 0
*CAP
1 4273_1 0
2 4273_2 0.00023664
3 4273_3 0.00067824
*RES
1 *4274:Q 4273_1 0
2 4273_1 4273_2 4.57333
3 4273_2 *4275:A 0
4 4273_1 4273_3 10.1733
5 4273_3 *4276:A 0
*END
*D_NET *4277 0.00045504
*CONN
*P *4277 O
*I *4278:A I *L 0
*I *4279:A I *L 0
*CAP
1 4277_1 0.0002244
2 4277_2 7.464e-05
3 4277_3 0.000156
*RES
1 *4277 4277_1 2.56667
2 4277_1 4277_2 1.07333
3 4277_2 *4278:A 0
4 4277_1 4277_3 2.33333
5 4277_3 *4279:A 0
*END
*D_NET *4280 0.00111264
*CONN
*I *4281:Q O *D _3764
*I *4282:A I *L 0
*I *4283:A I *L 0
*CAP
1 4280_1 0.00015504
2 4280_2 2.04e-05
3 4280_3 0.0009372
*RES
1 *4281:Q 4280_1 1.77333
2 4280_1 4280_2 0.233333
3 4280_2 *4282:A 0
4 4280_2 4280_3 12.3667
5 4280_3 *4283:A 0
*END
*D_NET *4284 0.00038736
*CONN
*I *4285:Y O *D _2102
*I *4286:B I *L 0
*I *4287:B I *L 0
*CAP
1 4284_1 0.00027216
2 4284_2 4.08e-05
3 4284_3 7.44e-05
*RES
1 *4285:Y 4284_1 7.56
2 4284_1 4284_2 0.466667
3 4284_2 *4286:B 0
4 4284_1 4284_3 1.4
5 4284_3 *4287:B 0
*END
*D_NET *4288 0.00038208
*CONN
*I *4289:Q O *D _3765
*I *4290:A I *L 0
*I *4291:A I *L 0
*CAP
1 4288_1 0
2 4288_2 0.00022032
3 4288_3 0.00016176
*RES
1 *4289:Q 4288_1 0
2 4288_1 4288_2 2.89333
3 4288_2 *4290:A 0
4 4288_1 4288_3 3.82667
5 4288_3 *4291:A 0
*END
*D_NET *4292 0.0002748
*CONN
*I *4293:Q O *D _3766
*I *4294:A I *L 0
*I *4295:A I *L 0
*CAP
1 4292_1 0.0001884
2 4292_2 8.64e-05
*RES
1 *4293:Q 4292_1 1.72667
2 4292_1 *4294:A 0
3 4292_1 4292_2 0.56
4 4292_2 *4295:A 0
*END
*D_NET *4296 0.00064416
*CONN
*I *4297:Q O *D _3767
*I *4298:A I *L 0
*I *4299:A I *L 0
*CAP
1 4296_1 0.00011544
2 4296_2 6.768e-05
3 4296_3 0.00046104
*RES
1 *4297:Q 4296_1 1.54
2 4296_1 4296_2 1.21333
3 4296_2 *4298:A 0
4 4296_1 4296_3 5.27333
5 4296_3 *4299:A 0
*END
*D_NET *4300 0.00044088
*CONN
*I *4301:Q O *D _3768
*I *4302:A I *L 0
*I *4303:A I *L 0
*CAP
1 4300_1 0.00025752
2 4300_2 0.00016296
3 4300_3 2.04e-05
*RES
1 *4301:Q 4300_1 4.15333
2 4300_1 4300_2 2.19333
3 4300_2 *4302:A 0
4 4300_1 4300_3 0.233333
5 4300_3 *4303:A 0
*END
*D_NET *4304 0.00032616
*CONN
*I *4305:Q O *D _3769
*I *4306:A I *L 0
*I *4307:A I *L 0
*CAP
1 4304_1 0.00019656
2 4304_2 0.0001296
*RES
1 *4305:Q 4304_1 3.12667
2 4304_1 *4306:A 0
3 4304_1 4304_2 0.84
4 4304_2 *4307:A 0
*END
*D_NET *4308 0.00041328
*CONN
*I *4309:Q O *D _3770
*I *4310:A I *L 0
*I *4311:A I *L 0
*CAP
1 4308_1 0.000102
2 4308_2 0.00031128
*RES
1 *4309:Q 4308_1 1.16667
2 4308_1 *4310:A 0
3 4308_1 4308_2 5.64667
4 4308_2 *4311:A 0
*END
*D_NET *4312 0.00087072
*CONN
*I *4313:Q O *D _3771
*I *4314:A I *L 0
*I *4315:A I *L 0
*CAP
1 4312_1 0.00035904
2 4312_2 2.04e-05
3 4312_3 0.00049128
*RES
1 *4313:Q 4312_1 4.10667
2 4312_1 4312_2 0.233333
3 4312_2 *4314:A 0
4 4312_2 4312_3 4.98
5 4312_3 *4315:A 0
*END
*D_NET *4316 0.0004176
*CONN
*I *4317:Q O *D _3772
*I *4318:A I *L 0
*I *4319:A I *L 0
*CAP
1 4316_1 0.0003312
2 4316_2 8.64e-05
*RES
1 *4317:Q 4316_1 3.36
2 4316_1 *4318:A 0
3 4316_1 4316_2 0.56
4 4316_2 *4319:A 0
*END
*D_NET *4320 0.000204
*CONN
*I *4321:Q O *D _3773
*I *4322:A I *L 0
*I *4323:A I *L 0
*CAP
1 4320_1 7.44e-05
2 4320_2 0.0001296
*RES
1 *4321:Q 4320_1 1.4
2 4320_1 *4322:A 0
3 4320_1 4320_2 0.84
4 4320_2 *4323:A 0
*END
*D_NET *4324 0.00025416
*CONN
*I *4325:Q O *D _3774
*I *4326:A I *L 0
*I *4327:A I *L 0
*CAP
1 4324_1 5.76e-05
2 4324_2 0.0001428
3 4324_3 5.376e-05
*RES
1 *4325:Q 4324_1 0.373333
2 4324_1 4324_2 1.63333
3 4324_2 *4326:A 0
4 4324_1 4324_3 1.49333
5 4324_3 *4327:A 0
*END
*D_NET *4328 0.00043392
*CONN
*I *4329:Q O *D _3775
*I *4330:A I *L 0
*I *4331:A I *L 0
*CAP
1 4328_1 8.736e-05
2 4328_2 4.08e-05
3 4328_3 0.00030576
*RES
1 *4329:Q 4328_1 2.42667
2 4328_1 4328_2 0.466667
3 4328_2 *4330:A 0
4 4328_1 4328_3 3.82667
5 4328_3 *4331:A 0
*END
*D_NET *4332 0.0003936
*CONN
*I *4333:Q O *D _3776
*I *4334:A I *L 0
*I *4335:A I *L 0
*CAP
1 4332_1 2.688e-05
2 4332_2 5.424e-05
3 4332_3 0.00031248
*RES
1 *4333:Q 4332_1 0.746667
2 4332_1 4332_2 0.84
3 4332_2 *4334:A 0
4 4332_1 4332_3 4.01333
5 4332_3 *4335:A 0
*END
*D_NET *4336 0.00026928
*CONN
*I *4337:Q O *D _3777
*I *4338:A I *L 0
*I *4339:A I *L 0
*CAP
1 4336_1 0.00018288
2 4336_2 8.64e-05
*RES
1 *4337:Q 4336_1 3.08
2 4336_1 *4338:A 0
3 4336_1 4336_2 0.56
4 4336_2 *4339:A 0
*END
*D_NET *4340 0.00050256
*CONN
*I *4341:Q O *D _3778
*I *4342:A I *L 0
*I *4343:A I *L 0
*CAP
1 4340_1 0.00026688
2 4340_2 6.72e-05
3 4340_3 0.00016848
*RES
1 *4341:Q 4340_1 2.41333
2 4340_1 4340_2 1.86667
3 4340_2 *4342:A 0
4 4340_1 4340_3 4.01333
5 4340_3 *4343:A 0
*END
*D_NET *4344 0.00093624
*CONN
*I *4345:Q O *D _3779
*I *4346:A I *L 0
*I *4347:A I *L 0
*CAP
1 4344_1 0.00017544
2 4344_2 0.0001152
3 4344_3 0.0006456
*RES
1 *4345:Q 4344_1 2.00667
2 4344_1 4344_2 1.86667
3 4344_2 *4346:A 0
4 4344_1 4344_3 7.93333
5 4344_3 *4347:A 0
*END
*D_NET *4348 0.00047232
*CONN
*I *4349:Q O *D _3780
*I *4350:A I *L 0
*I *4351:A I *L 0
*CAP
1 4348_1 0
2 4348_2 0.00018816
3 4348_3 0.00028416
*RES
1 *4349:Q 4348_1 0
2 4348_1 4348_2 5.22667
3 4348_2 *4350:A 0
4 4348_1 4348_3 5.22667
5 4348_3 *4351:A 0
*END
*D_NET *4352 0.00099312
*CONN
*I *4353:Q O *D _3781
*I *4354:A I *L 0
*I *4355:A I *L 0
*CAP
1 4352_1 5.376e-05
2 4352_2 9.504e-05
3 4352_3 0.00084432
*RES
1 *4353:Q 4352_1 1.49333
2 4352_1 4352_2 1.30667
3 4352_2 *4354:A 0
4 4352_1 4352_3 9.98667
5 4352_3 *4355:A 0
*END
*D_NET *4356 0.00022872
*CONN
*I *4357:Q O *D _3782
*I *4358:A I *L 0
*I *4359:A I *L 0
*CAP
1 4356_1 0.00014232
2 4356_2 8.64e-05
*RES
1 *4357:Q 4356_1 2.28667
2 4356_1 *4358:A 0
3 4356_1 4356_2 0.56
4 4356_2 *4359:A 0
*END
*D_NET *4360 0.0002292
*CONN
*I *4361:Q O *D _3783
*I *4362:A I *L 0
*I *4363:A I *L 0
*CAP
1 4360_1 0.00013464
2 4360_2 4.08e-05
3 4360_3 5.376e-05
*RES
1 *4361:Q 4360_1 1.54
2 4360_1 4360_2 0.466667
3 4360_2 *4362:A 0
4 4360_1 4360_3 1.49333
5 4360_3 *4363:A 0
*END
*D_NET *4364 0.0002316
*CONN
*I *4365:Q O *D _3784
*I *4366:A I *L 0
*I *4367:A I *L 0
*CAP
1 4364_1 0.000102
2 4364_2 0.0001296
*RES
1 *4365:Q 4364_1 1.16667
2 4364_1 *4366:A 0
3 4364_1 4364_2 0.84
4 4364_2 *4367:A 0
*END
*D_NET *4368 0.0002292
*CONN
*I *4369:Q O *D _3785
*I *4370:A I *L 0
*I *4371:A I *L 0
*CAP
1 4368_1 8.64e-05
2 4368_2 0.0001428
*RES
1 *4369:Q 4368_1 0.56
2 4368_1 *4370:A 0
3 4368_1 4368_2 1.63333
4 4368_2 *4371:A 0
*END
*D_NET *4372 0.00028848
*CONN
*I *4373:Q O *D _3786
*I *4374:A I *L 0
*I *4375:A I *L 0
*CAP
1 4372_1 8.64e-05
2 4372_2 0.00020208
*RES
1 *4373:Q 4372_1 0.56
2 4372_1 *4374:A 0
3 4372_1 4372_2 4.94667
4 4372_2 *4375:A 0
*END
*D_NET *4376 0.0001632
*CONN
*I *4377:Q O *D _3787
*I *4378:A I *L 0
*I *4379:A I *L 0
*CAP
1 4376_1 3.36e-05
2 4376_2 0.0001296
*RES
1 *4377:Q 4376_1 0.933333
2 4376_1 *4378:A 0
3 4376_1 4376_2 0.84
4 4376_2 *4379:A 0
*END
*D_NET *4380 0.00057552
*CONN
*I *4381:Q O *D _3788
*I *4382:A I *L 0
*I *4383:A I *L 0
*CAP
1 4380_1 6.12e-05
2 4380_2 0.00030408
3 4380_3 0.00021024
*RES
1 *4381:Q 4380_1 0.7
2 4380_1 4380_2 6.11333
3 4380_2 *4382:A 0
4 4380_1 4380_3 3.17333
5 4380_3 *4383:A 0
*END
*D_NET *4384 0.00052008
*CONN
*I *4385:Q O *D _3789
*I *4386:A I *L 0
*I *4387:A I *L 0
*CAP
1 4384_1 0
2 4384_2 0.00020208
3 4384_3 0.000318
*RES
1 *4385:Q 4384_1 0
2 4384_1 4384_2 4.94667
3 4384_2 *4386:A 0
4 4384_1 4384_3 5.83333
5 4384_3 *4387:A 0
*END
*D_NET *4388 0.000432
*CONN
*I *4389:Q O *D _3790
*I *4390:A I *L 0
*I *4391:A I *L 0
*CAP
1 4388_1 0
2 4388_2 0.00014784
3 4388_3 0.00028416
*RES
1 *4389:Q 4388_1 0
2 4388_1 4388_2 4.10667
3 4388_2 *4390:A 0
4 4388_1 4388_3 5.22667
5 4388_3 *4391:A 0
*END
*D_NET *4392 0.00081264
*CONN
*I *4393:Q O *D _3791
*I *4394:A I *L 0
*I *4395:A I *L 0
*CAP
1 4392_1 0.00028992
2 4392_2 2.04e-05
3 4392_3 0.00050232
*RES
1 *4393:Q 4392_1 3.54667
2 4392_1 4392_2 0.233333
3 4392_2 *4394:A 0
4 4392_2 4392_3 6.95333
5 4392_3 *4395:A 0
*END
*D_NET *4396 0.0003924
*CONN
*I *4397:Q O *D _3792
*I *4398:A I *L 0
*I *4399:A I *L 0
*CAP
1 4396_1 0.000306
2 4396_2 8.64e-05
*RES
1 *4397:Q 4396_1 3.5
2 4396_1 *4398:A 0
3 4396_1 4396_2 0.56
4 4396_2 *4399:A 0
*END
*D_NET *4400 0.00050712
*CONN
*I *4401:Q O *D _3793
*I *4402:A I *L 0
*I *4403:A I *L 0
*CAP
1 4400_1 0.00031128
2 4400_2 0.00017544
3 4400_3 2.04e-05
*RES
1 *4401:Q 4400_1 5.64667
2 4400_1 4400_2 2.00667
3 4400_2 *4402:A 0
4 4400_1 4400_3 0.233333
5 4400_3 *4403:A 0
*END
*D_NET *4404 0.00018336
*CONN
*I *4405:Q O *D _3794
*I *4406:A I *L 0
*I *4407:A I *L 0
*CAP
1 4404_1 0.000102
2 4404_2 2.04e-05
3 4404_3 6.096e-05
*RES
1 *4405:Q 4404_1 1.16667
2 4404_1 4404_2 0.233333
3 4404_2 *4406:A 0
4 4404_2 4404_3 1.02667
5 4404_3 *4407:A 0
*END
*D_NET *4408 0.0007524
*CONN
*I *4409:Q O *D _3795
*I *4410:A I *L 0
*I *4411:A I *L 0
*CAP
1 4408_1 0.00010752
2 4408_2 0.0001104
3 4408_3 0.00053448
*RES
1 *4409:Q 4408_1 1.58667
2 4408_1 4408_2 1.4
3 4408_2 *4410:A 0
4 4408_1 4408_3 9.11333
5 4408_3 *4411:A 0
*END
*D_NET *4412 0.00062064
*CONN
*I *4413:Q O *D _3796
*I *4414:A I *L 0
*I *4415:A I *L 0
*CAP
1 4412_1 0.00035976
2 4412_2 0.00026088
*RES
1 *4413:Q 4412_1 4.99333
2 4412_1 *4414:A 0
3 4412_1 4412_2 3.68667
4 4412_2 *4415:A 0
*END
*D_NET *4416 0.00025728
*CONN
*I *4417:Q O *D _3797
*I *4418:A I *L 0
*I *4419:A I *L 0
*CAP
1 4416_1 6.048e-05
2 4416_2 0
3 4416_3 0.0001968
*RES
1 *4417:Q 4416_1 1.68
2 4416_1 4416_2 0
3 4416_2 *4418:A 0
4 4416_2 4416_3 2.8
5 4416_3 *4419:A 0
*END
*D_NET *4420 0.00070632
*CONN
*I *4421:Q O *D _3798
*I *4422:A I *L 0
*I *4423:A I *L 0
*CAP
1 4420_1 4.08e-05
2 4420_2 0.00012888
3 4420_3 0.00053664
*RES
1 *4421:Q 4420_1 0.466667
2 4420_1 4420_2 1.91333
3 4420_2 *4422:A 0
4 4420_1 4420_3 6.90667
5 4420_3 *4423:A 0
*END
*D_NET *4424 0.00060936
*CONN
*I *4425:Q O *D _3799
*I *4426:A I *L 0
*I *4427:A I *L 0
*CAP
1 4424_1 0.00012816
2 4424_2 0.00018336
3 4424_3 0.00029784
*RES
1 *4425:Q 4424_1 2.89333
2 4424_1 4424_2 2.42667
3 4424_2 *4426:A 0
4 4424_1 4424_3 3.40667
5 4424_3 *4427:A 0
*END
*D_NET *4428 0.00061128
*CONN
*I *4429:Q O *D _3800
*I *4430:A I *L 0
*I *4431:A I *L 0
*CAP
1 4428_1 6.048e-05
2 4428_2 8.4e-06
3 4428_3 0.0005424
*RES
1 *4429:Q 4428_1 1.68
2 4428_1 4428_2 0.233333
3 4428_2 *4430:A 0
4 4428_1 4428_3 6.26667
5 4428_3 *4431:A 0
*END
*D_NET *4432 0.00081888
*CONN
*I *4433:Q O *D _3801
*I *4434:A I *L 0
*I *4435:A I *L 0
*CAP
1 4432_1 6.048e-05
2 4432_2 0.00018336
3 4432_3 0.00057504
*RES
1 *4433:Q 4432_1 1.68
2 4432_1 4432_2 2.76
3 4432_2 *4434:A 0
4 4432_1 4432_3 4.97333
5 4432_3 *4435:A 0
*END
*D_NET *4436 0.00030408
*CONN
*I *4437:Q O *D _3802
*I *4438:A I *L 0
*I *4439:A I *L 0
*CAP
1 4436_1 7.392e-05
2 4436_2 0
3 4436_3 0.00023016
*RES
1 *4437:Q 4436_1 2.05333
2 4436_1 4436_2 0
3 4436_2 *4438:A 0
4 4436_2 4436_3 4.06
5 4436_3 *4439:A 0
*END
*D_NET *4440 0.00037104
*CONN
*I *4441:Q O *D _3803
*I *4442:A I *L 0
*I *4443:A I *L 0
*CAP
1 4440_1 0.00024144
2 4440_2 0.0001296
*RES
1 *4441:Q 4440_1 2.50667
2 4440_1 *4442:A 0
3 4440_1 4440_2 0.84
4 4440_2 *4443:A 0
*END
*D_NET *4444 0.00026256
*CONN
*I *4445:Q O *D _3804
*I *4446:A I *L 0
*I *4447:A I *L 0
*CAP
1 4444_1 0
2 4444_2 6.72e-05
3 4444_3 0.00019536
*RES
1 *4445:Q 4444_1 0
2 4444_1 4444_2 1.86667
3 4444_2 *4446:A 0
4 4444_1 4444_3 4.76
5 4444_3 *4447:A 0
*END
*D_NET *4448 0.0004344
*CONN
*I *4449:Q O *D _3805
*I *4450:A I *L 0
*I *4451:A I *L 0
*CAP
1 4448_1 0.000282
2 4448_2 7.8e-05
3 4448_3 7.44e-05
*RES
1 *4449:Q 4448_1 2.94
2 4448_1 4448_2 0.606667
3 4448_2 *4450:A 0
4 4448_1 4448_3 1.4
5 4448_3 *4451:A 0
*END
*D_NET *4452 0.00063624
*CONN
*I *4453:Q O *D _3806
*I *4454:A I *L 0
*I *4455:A I *L 0
*CAP
1 4452_1 0.0001428
2 4452_2 0.00022248
3 4452_3 0.00027096
*RES
1 *4453:Q 4452_1 1.63333
2 4452_1 4452_2 5.18
3 4452_2 *4454:A 0
4 4452_1 4452_3 4.52667
5 4452_3 *4455:A 0
*END
*D_NET *4456 0.00065736
*CONN
*I *4457:Q O *D _3807
*I *4458:A I *L 0
*I *4459:A I *L 0
*CAP
1 4456_1 0.00044064
2 4456_2 0
3 4456_3 0.00021672
*RES
1 *4457:Q 4456_1 6.90667
2 4456_1 4456_2 0
3 4456_2 *4458:A 0
4 4456_2 4456_3 3.68667
5 4456_3 *4459:A 0
*END
*D_NET *4460 0.00103776
*CONN
*I *4461:Q O *D _3808
*I *4462:A I *L 0
*I *4463:A I *L 0
*CAP
1 4460_1 0.00076392
2 4460_2 0.00027384
*RES
1 *4461:Q 4460_1 8.54
2 4460_1 *4462:A 0
3 4460_1 4460_2 2.84667
4 4460_2 *4463:A 0
*END
*D_NET *4464 0.00323496
*CONN
*I *4465:Q O *D _3809
*I *4466:A I *L 0
*I *4467:A I *L 0
*CAP
1 4464_1 0.00135288
2 4464_2 0.00188208
*RES
1 *4465:Q 4464_1 15.0467
2 4464_1 *4466:A 0
3 4464_1 4464_2 21.1467
4 4464_2 *4467:A 0
*END
*D_NET *4468 0.000108
*CONN
*I *4469:Q O *D _3810
*I *4470:A I *L 0
*I *4471:A I *L 0
*CAP
1 4468_1 4.704e-05
2 4468_2 0
3 4468_3 6.096e-05
*RES
1 *4469:Q 4468_1 1.30667
2 4468_1 4468_2 0
3 4468_2 *4470:A 0
4 4468_1 4468_3 1.02667
5 4468_3 *4471:A 0
*END
*D_NET *4472 0.00027864
*CONN
*I *4473:Q O *D _3811
*I *4474:A I *L 0
*I *4475:A I *L 0
*CAP
1 4472_1 0.00014904
2 4472_2 0.0001296
*RES
1 *4473:Q 4472_1 2.47333
2 4472_1 *4474:A 0
3 4472_1 4472_2 0.84
4 4472_2 *4475:A 0
*END
*D_NET *4476 0.0004356
*CONN
*I *4477:Q O *D _3812
*I *4478:A I *L 0
*I *4479:A I *L 0
*CAP
1 4476_1 6.048e-05
2 4476_2 8.4e-06
3 4476_3 0.00036672
*RES
1 *4477:Q 4476_1 1.68
2 4476_1 4476_2 0.233333
3 4476_2 *4478:A 0
4 4476_1 4476_3 6.18667
5 4476_3 *4479:A 0
*END
*D_NET *4480 0.0002544
*CONN
*I *4481:Q O *D _3813
*I *4482:A I *L 0
*I *4483:A I *L 0
*CAP
1 4480_1 0.0001248
2 4480_2 0.0001296
*RES
1 *4481:Q 4480_1 2.24
2 4480_1 *4482:A 0
3 4480_1 4480_2 0.84
4 4480_2 *4483:A 0
*END
*D_NET *4484 0.00098088
*CONN
*I *4485:Q O *D _3814
*I *4486:A I *L 0
*I *4487:A I *L 0
*CAP
1 4484_1 0.0008796
2 4484_2 0.00010128
*RES
1 *4485:Q 4484_1 10.8733
2 4484_1 *4486:A 0
3 4484_1 4484_2 2.14667
4 4484_2 *4487:A 0
*END
*D_NET *4488 0.00025848
*CONN
*I *4489:Q O *D _3815
*I *4490:A I *L 0
*I *4491:A I *L 0
*CAP
1 4488_1 0.00012888
2 4488_2 0.0001296
*RES
1 *4489:Q 4488_1 1.91333
2 4488_1 *4490:A 0
3 4488_1 4488_2 0.84
4 4488_2 *4491:A 0
*END
*D_NET *4492 0.00015648
*CONN
*I *4493:Q O *D _3816
*I *4494:A I *L 0
*I *4495:A I *L 0
*CAP
1 4492_1 2.688e-05
2 4492_2 0.0001296
*RES
1 *4493:Q 4492_1 0.746667
2 4492_1 *4494:A 0
3 4492_1 4492_2 0.84
4 4492_2 *4495:A 0
*END
*D_NET *4496 0.00048672
*CONN
*I *4497:Q O *D _3817
*I *4498:A I *L 0
*I *4499:A I *L 0
*CAP
1 4496_1 0.00040032
2 4496_2 8.64e-05
*RES
1 *4497:Q 4496_1 5.78667
2 4496_1 *4498:A 0
3 4496_1 4496_2 0.56
4 4496_2 *4499:A 0
*END
*D_NET *4500 0.00066816
*CONN
*I *4501:Q O *D _3818
*I *4502:A I *L 0
*I *4503:A I *L 0
*CAP
1 4500_1 5.76e-05
2 4500_2 0.00011472
3 4500_3 0.00049584
*RES
1 *4501:Q 4500_1 0.373333
2 4500_1 4500_2 2.52
3 4500_2 *4502:A 0
4 4500_1 4500_3 6.44
5 4500_3 *4503:A 0
*END
*D_NET *4504 0.00122976
*CONN
*I *4505:Q O *D _3819
*I *4506:A I *L 0
*I *4507:A I *L 0
*CAP
1 4504_1 0.0003972
2 4504_2 2.04e-05
3 4504_3 0.00081216
*RES
1 *4505:Q 4504_1 3.68667
2 4504_1 4504_2 0.233333
3 4504_2 *4506:A 0
4 4504_2 4504_3 12.6933
5 4504_3 *4507:A 0
*END
*D_NET *4508 0.00027456
*CONN
*I *4509:Q O *D _3820
*I *4510:A I *L 0
*I *4511:A I *L 0
*CAP
1 4508_1 0.000156
2 4508_2 4.08e-05
3 4508_3 7.776e-05
*RES
1 *4509:Q 4508_1 2.33333
2 4508_1 4508_2 0.466667
3 4508_2 *4510:A 0
4 4508_1 4508_3 0.933333
5 4508_3 *4511:A 0
*END
*D_NET *4512 0.0006264
*CONN
*I *4513:Q O *D _3821
*I *4514:A I *L 0
*I *4515:A I *L 0
*CAP
1 4512_1 0.000426
2 4512_2 0.0002004
*RES
1 *4513:Q 4512_1 8.16667
2 4512_1 *4514:A 0
3 4512_1 4512_2 2.00667
4 4512_2 *4515:A 0
*END
*D_NET *4516 0.00058224
*CONN
*I *4517:Q O *D _3822
*I *4518:A I *L 0
*I *4519:A I *L 0
*CAP
1 4516_1 8.808e-05
2 4516_2 0.00014232
3 4516_3 0.00035184
*RES
1 *4517:Q 4516_1 1.44667
2 4516_1 4516_2 2.28667
3 4516_2 *4518:A 0
4 4516_1 4516_3 3.97333
5 4516_3 *4519:A 0
*END
*D_NET *4520 0.00046656
*CONN
*I *4521:Q O *D _3823
*I *4522:A I *L 0
*I *4523:A I *L 0
*CAP
1 4520_1 0.00038016
2 4520_2 8.64e-05
*RES
1 *4521:Q 4520_1 5.22667
2 4520_1 *4522:A 0
3 4520_1 4520_2 0.56
4 4520_2 *4523:A 0
*END
*D_NET *4524 0.00014736
*CONN
*I *4525:Q O *D _3824
*I *4526:A I *L 0
*I *4527:A I *L 0
*CAP
1 4524_1 8.64e-05
2 4524_2 6.096e-05
*RES
1 *4525:Q 4524_1 0.56
2 4524_1 *4526:A 0
3 4524_1 4524_2 1.02667
4 4524_2 *4527:A 0
*END
*D_NET *4528 0.00028464
*CONN
*I *4529:Q O *D _3825
*I *4530:A I *L 0
*I *4531:A I *L 0
*CAP
1 4528_1 4.08e-05
2 4528_2 0.00014904
3 4528_3 9.48e-05
*RES
1 *4529:Q 4528_1 0.466667
2 4528_1 4528_2 2.47333
3 4528_2 *4530:A 0
4 4528_1 4528_3 1.63333
5 4528_3 *4531:A 0
*END
*D_NET *4532 0.00045048
*CONN
*I *4533:Q O *D _3826
*I *4534:A I *L 0
*I *4535:A I *L 0
*CAP
1 4532_1 0.00036408
2 4532_2 8.64e-05
*RES
1 *4533:Q 4532_1 4.24667
2 4532_1 *4534:A 0
3 4532_1 4532_2 0.56
4 4532_2 *4535:A 0
*END
*D_NET *4536 0.00054312
*CONN
*I *4537:Q O *D _3827
*I *4538:A I *L 0
*I *4539:A I *L 0
*CAP
1 4536_1 0.00019656
2 4536_2 2.04e-05
3 4536_3 0.00032616
*RES
1 *4537:Q 4536_1 3.12667
2 4536_1 4536_2 0.233333
3 4536_2 *4538:A 0
4 4536_2 4536_3 4.06
5 4536_3 *4539:A 0
*END
*D_NET *4540 0.0005484
*CONN
*I *4541:Q O *D _3828
*I *4542:A I *L 0
*I *4543:A I *L 0
*CAP
1 4540_1 0.000462
2 4540_2 8.64e-05
*RES
1 *4541:Q 4540_1 5.83333
2 4540_1 *4542:A 0
3 4540_1 4540_2 0.56
4 4540_2 *4543:A 0
*END
*D_NET *4544 0.00054432
*CONN
*I *4545:Y O *D _2237
*I *4546:A I *L 0
*I *4547:B I *L 0
*CAP
1 4544_1 0.0004056
2 4544_2 5.76e-05
3 4544_3 8.112e-05
*RES
1 *4545:Y 4544_1 7.93333
2 4544_1 4544_2 0.373333
3 4544_2 *4546:A 0
4 4544_1 4544_3 1.58667
5 4544_3 *4547:B 0
*END
*D_NET *4548 0.00011808
*CONN
*I *4549:Y O *D _2241
*I *4550:A I *L 0
*I *4551:B I *L 0
*CAP
1 4548_1 6.048e-05
2 4548_2 5.76e-05
*RES
1 *4549:Y 4548_1 1.68
2 4548_1 *4550:A 0
3 4548_1 4548_2 0.373333
4 4548_2 *4551:B 0
*END
*D_NET *4552 0.0001764
*CONN
*I *4553:Y O *D _2247
*I *4554:B I *L 0
*I *4555:A I *L 0
*CAP
1 4552_1 0.000102
2 4552_2 4.08e-05
3 4552_3 3.36e-05
*RES
1 *4553:Y 4552_1 1.16667
2 4552_1 4552_2 0.466667
3 4552_2 *4554:B 0
4 4552_1 4552_3 0.933333
5 4552_3 *4555:A 0
*END
*D_NET *4556 0.00069168
*CONN
*I *4557:Y O *D _2250
*I *4558:B I *L 0
*I *4559:A I *L 0
*CAP
1 4556_1 0.00059328
2 4556_2 4.08e-05
3 4556_3 5.76e-05
*RES
1 *4557:Y 4556_1 13.8133
2 4556_1 4556_2 0.466667
3 4556_2 *4558:B 0
4 4556_1 4556_3 0.373333
5 4556_3 *4559:A 0
*END
*D_NET *4560 0.000468
*CONN
*I *4561:Y O *D _2256
*I *4562:B I *L 0
*I *4563:A I *L 0
*CAP
1 4560_1 0.00038664
2 4560_2 2.016e-05
3 4560_3 6.12e-05
*RES
1 *4561:Y 4560_1 3.87333
2 4560_1 4560_2 0.56
3 4560_2 *4562:B 0
4 4560_1 4560_3 0.7
5 4560_3 *4563:A 0
*END
*D_NET *4564 0.00023568
*CONN
*I *4565:Y O *D _2259
*I *4566:B I *L 0
*I *4567:A I *L 0
*CAP
1 4564_1 0.000168
2 4564_2 4.08e-05
3 4564_3 2.688e-05
*RES
1 *4565:Y 4564_1 4.66667
2 4564_1 4564_2 0.466667
3 4564_2 *4566:B 0
4 4564_1 4564_3 0.746667
5 4564_3 *4567:A 0
*END
*D_NET *4568 0.00038448
*CONN
*I *4569:Y O *D _2265
*I *4570:B I *L 0
*I *4571:A I *L 0
*CAP
1 4568_1 0.00024192
2 4568_2 4.08e-05
3 4568_3 0.00010176
*RES
1 *4569:Y 4568_1 6.72
2 4568_1 4568_2 0.466667
3 4568_2 *4570:B 0
4 4568_1 4568_3 1.49333
5 4568_3 *4571:A 0
*END
*D_NET *4572 0.0004584
*CONN
*I *4573:Y O *D _2268
*I *4574:B I *L 0
*I *4575:A I *L 0
*CAP
1 4572_1 0.0003264
2 4572_2 9.84e-05
3 4572_3 3.36e-05
*RES
1 *4573:Y 4572_1 3.73333
2 4572_1 4572_2 0.84
3 4572_2 *4574:B 0
4 4572_1 4572_3 0.933333
5 4572_3 *4575:A 0
*END
*D_NET *4576 0.00161448
*CONN
*I *4577:Y O *D _2274
*I *4578:A I *L 0
*I *4579:B I *L 0
*CAP
1 4576_1 0.0012384
2 4576_2 0.00037608
*RES
1 *4577:Y 4576_1 14.0667
2 4576_1 *4578:A 0
3 4576_1 4576_2 5.55333
4 4576_2 *4579:B 0
*END
*D_NET *4580 0.0029064
*CONN
*I *4581:Y O *D _2277
*I *4582:A I *L 0
*I *4583:B I *L 0
*CAP
1 4580_1 0.00169632
2 4580_2 2.04e-05
3 4580_3 0.00118968
*RES
1 *4581:Y 4580_1 21.8533
2 4580_1 4580_2 0.233333
3 4580_2 *4582:A 0
4 4580_2 4580_3 13.38
5 4580_3 *4583:B 0
*END
*D_NET *4584 0.00026136
*CONN
*I *4585:Y O *D _2283
*I *4586:B I *L 0
*I *4587:A I *L 0
*CAP
1 4584_1 0.00018
2 4584_2 6.12e-05
3 4584_3 2.016e-05
*RES
1 *4585:Y 4584_1 1.77333
2 4584_1 4584_2 0.7
3 4584_2 *4586:B 0
4 4584_1 4584_3 0.56
5 4584_3 *4587:A 0
*END
*D_NET *4588 0.00063888
*CONN
*I *4589:Y O *D _2286
*I *4590:B I *L 0
*I *4591:A I *L 0
*CAP
1 4588_1 0.0005508
2 4588_2 2.04e-05
3 4588_3 6.768e-05
*RES
1 *4589:Y 4588_1 6.3
2 4588_1 4588_2 0.233333
3 4588_2 *4590:B 0
4 4588_2 4588_3 1.21333
5 4588_3 *4591:A 0
*END
*D_NET *4592 0.00042816
*CONN
*I *4593:Y O *D _2292
*I *4594:A I *L 0
*I *4595:B I *L 0
*CAP
1 4592_1 0.000306
2 4592_2 2.04e-05
3 4592_3 0.00010176
*RES
1 *4593:Y 4592_1 3.5
2 4592_1 4592_2 0.233333
3 4592_2 *4594:A 0
4 4592_2 4592_3 1.49333
5 4592_3 *4595:B 0
*END
*D_NET *4596 0.0016284
*CONN
*I *4597:Y O *D _2295
*I *4598:A I *L 0
*I *4599:B I *L 0
*CAP
1 4596_1 0.0014112
2 4596_2 0.00011544
3 4596_3 0.00010176
*RES
1 *4597:Y 4596_1 13.9333
2 4596_1 4596_2 1.54
3 4596_2 *4598:A 0
4 4596_1 4596_3 1.49333
5 4596_3 *4599:B 0
*END
*D_NET *4600 0.0001488
*CONN
*I *4601:Y O *D _2301
*I *4602:B I *L 0
*I *4603:A I *L 0
*CAP
1 4600_1 9.12e-05
2 4600_2 5.76e-05
*RES
1 *4601:Y 4600_1 1.30667
2 4600_1 *4602:B 0
3 4600_1 4600_2 0.373333
4 4600_2 *4603:A 0
*END
*D_NET *4604 0.00039984
*CONN
*I *4605:Y O *D _2304
*I *4606:B I *L 0
*I *4607:A I *L 0
*CAP
1 4604_1 0.0002028
2 4604_2 9.504e-05
3 4604_3 0.000102
*RES
1 *4605:Y 4604_1 3.96667
2 4604_1 4604_2 1.30667
3 4604_2 *4606:B 0
4 4604_1 4604_3 1.16667
5 4604_3 *4607:A 0
*END
*D_NET *4608 0.00034728
*CONN
*I *4609:Y O *D _2310
*I *4610:B I *L 0
*I *4611:A I *L 0
*CAP
1 4608_1 0.00013104
2 4608_2 2.04e-05
3 4608_3 0.00019584
*RES
1 *4609:Y 4608_1 1.21333
2 4608_1 4608_2 0.233333
3 4608_2 *4610:B 0
4 4608_2 4608_3 2.24
5 4608_3 *4611:A 0
*END
*D_NET *4612 0.00108432
*CONN
*I *4613:Y O *D _2313
*I *4614:B I *L 0
*I *4615:A I *L 0
*CAP
1 4612_1 0.00086016
2 4612_2 8.16e-05
3 4612_3 0.00014256
*RES
1 *4613:Y 4612_1 23.8933
2 4612_1 4612_2 0.933333
3 4612_2 *4614:B 0
4 4612_1 4612_3 1.96
5 4612_3 *4615:A 0
*END
*D_NET *4616 0.00010824
*CONN
*I *4617:Y O *D _2319
*I *4618:B I *L 0
*I *4619:A I *L 0
*CAP
1 4616_1 2.688e-05
2 4616_2 0
3 4616_3 8.136e-05
*RES
1 *4617:Y 4616_1 0.746667
2 4616_1 4616_2 0
3 4616_2 *4618:B 0
4 4616_1 4616_3 1.26
5 4616_3 *4619:A 0
*END
*D_NET *4620 0.0006132
*CONN
*I *4621:Y O *D _2322
*I *4622:B I *L 0
*I *4623:A I *L 0
*CAP
1 4620_1 0.00044352
2 4620_2 6.12e-05
3 4620_3 0.00010848
*RES
1 *4621:Y 4620_1 12.32
2 4620_1 4620_2 0.7
3 4620_2 *4622:B 0
4 4620_1 4620_3 1.68
5 4620_3 *4623:A 0
*END
*D_NET *4624 0.00035256
*CONN
*I *4625:Y O *D _2328
*I *4626:A I *L 0
*I *4627:B I *L 0
*CAP
1 4624_1 0.00023736
2 4624_2 4.08e-05
3 4624_3 7.44e-05
*RES
1 *4625:Y 4624_1 3.59333
2 4624_1 4624_2 0.466667
3 4624_2 *4626:A 0
4 4624_1 4624_3 1.4
5 4624_3 *4627:B 0
*END
*D_NET *4628 0.00018
*CONN
*I *4629:Y O *D _2331
*I *4630:A I *L 0
*I *4631:B I *L 0
*CAP
1 4628_1 0.0001224
2 4628_2 5.76e-05
*RES
1 *4629:Y 4628_1 1.4
2 4628_1 *4630:A 0
3 4628_1 4628_2 0.373333
4 4628_2 *4631:B 0
*END
*D_NET *4632 0.00026064
*CONN
*I *4633:Y O *D _2337
*I *4634:B I *L 0
*I *4635:A I *L 0
*CAP
1 4632_1 0.00019968
2 4632_2 0
3 4632_3 6.096e-05
*RES
1 *4633:Y 4632_1 1.94667
2 4632_1 4632_2 0
3 4632_2 *4634:B 0
4 4632_1 4632_3 1.02667
5 4632_3 *4635:A 0
*END
*D_NET *4636 0.00015888
*CONN
*I *4637:Y O *D _2340
*I *4638:B I *L 0
*I *4639:A I *L 0
*CAP
1 4636_1 9.12e-05
2 4636_2 0
3 4636_3 6.768e-05
*RES
1 *4637:Y 4636_1 1.30667
2 4636_1 4636_2 0
3 4636_2 *4638:B 0
4 4636_1 4636_3 1.21333
5 4636_3 *4639:A 0
*END
*D_NET *4640 0.00237792
*CONN
*I *4641:Y O *D _2346
*I *4642:B I *L 0
*I *4643:A I *L 0
*CAP
1 4640_1 0.00199776
2 4640_2 2.04e-05
3 4640_3 0.00035976
*RES
1 *4641:Y 4640_1 16.0933
2 4640_1 4640_2 0.233333
3 4640_2 *4642:B 0
4 4640_2 4640_3 4.99333
5 4640_3 *4643:A 0
*END
*D_NET *4644 0.00060336
*CONN
*I *4645:Y O *D _2349
*I *4646:A I *L 0
*I *4647:B I *L 0
*CAP
1 4644_1 0.00023688
2 4644_2 2.04e-05
3 4644_3 0.00034608
*RES
1 *4645:Y 4644_1 4.24667
2 4644_1 4644_2 0.233333
3 4644_2 *4646:A 0
4 4644_2 4644_3 4.94667
5 4644_3 *4647:B 0
*END
*D_NET *4648 0.00133152
*CONN
*I *4649:Y O *D _2355
*I *4650:B I *L 0
*I *4651:A I *L 0
*CAP
1 4648_1 0.00121632
2 4648_2 2.04e-05
3 4648_3 9.48e-05
*RES
1 *4649:Y 4648_1 11.12
2 4648_1 4648_2 0.233333
3 4648_2 *4650:B 0
4 4648_2 4648_3 1.63333
5 4648_3 *4651:A 0
*END
*D_NET *4652 0.00028464
*CONN
*I *4653:Y O *D _2358
*I *4654:B I *L 0
*I *4655:A I *L 0
*CAP
1 4652_1 0.00015504
2 4652_2 0.0001296
*RES
1 *4653:Y 4652_1 3.64
2 4652_1 *4654:B 0
3 4652_1 4652_2 0.84
4 4652_2 *4655:A 0
*END
*D_NET *4656 0.00108864
*CONN
*I *4657:Y O *D _2364
*I *4658:A I *L 0
*I *4659:B I *L 0
*CAP
1 4656_1 0.00094608
2 4656_2 4.08e-05
3 4656_3 0.00010176
*RES
1 *4657:Y 4656_1 22.52
2 4656_1 4656_2 0.466667
3 4656_2 *4658:A 0
4 4656_1 4656_3 1.49333
5 4656_3 *4659:B 0
*END
*D_NET *4660 0.00012864
*CONN
*I *4661:Y O *D _2367
*I *4662:B I *L 0
*I *4663:A I *L 0
*CAP
1 4660_1 6.096e-05
2 4660_2 0
3 4660_3 6.768e-05
*RES
1 *4661:Y 4660_1 1.02667
2 4660_1 4660_2 0
3 4660_2 *4662:B 0
4 4660_1 4660_3 1.21333
5 4660_3 *4663:A 0
*END
*D_NET *4664 0.00031008
*CONN
*I *4665:Y O *D _2373
*I *4666:B I *L 0
*I *4667:A I *L 0
*CAP
1 4664_1 0.0001836
2 4664_2 3.264e-05
3 4664_3 9.384e-05
*RES
1 *4665:Y 4664_1 2.1
2 4664_1 4664_2 0.373333
3 4664_2 *4666:B 0
4 4664_1 4664_3 1.07333
5 4664_3 *4667:A 0
*END
*D_NET *4668 0.00017088
*CONN
*I *4669:Y O *D _2376
*I *4670:A I *L 0
*I *4671:B I *L 0
*CAP
1 4668_1 8.448e-05
2 4668_2 8.64e-05
*RES
1 *4669:Y 4668_1 1.12
2 4668_1 *4670:A 0
3 4668_1 4668_2 0.56
4 4668_2 *4671:B 0
*END
*D_NET *4672 0.00069816
*CONN
*I *4673:Y O *D _2382
*I *4674:B I *L 0
*I *4675:A I *L 0
*CAP
1 4672_1 0.00048192
2 4672_2 2.04e-05
3 4672_3 0.00019584
*RES
1 *4673:Y 4672_1 6.72
2 4672_1 4672_2 0.233333
3 4672_2 *4674:B 0
4 4672_2 4672_3 2.24
5 4672_3 *4675:A 0
*END
*D_NET *4676 0.00025104
*CONN
*I *4677:Y O *D _2385
*I *4678:B I *L 0
*I *4679:A I *L 0
*CAP
1 4676_1 2.688e-05
2 4676_2 0
3 4676_3 0.00022416
*RES
1 *4677:Y 4676_1 0.746667
2 4676_1 4676_2 0
3 4676_2 *4678:B 0
4 4676_2 4676_3 2.89333
5 4676_3 *4679:A 0
*END
*D_NET *4680 0.0002688
*CONN
*I *4681:Y O *D _2391
*I *4682:A I *L 0
*I *4683:B I *L 0
*CAP
1 4680_1 0.0001224
2 4680_2 7.2e-05
3 4680_3 7.44e-05
*RES
1 *4681:Y 4680_1 0.793333
2 4680_1 4680_2 0.466667
3 4680_2 *4682:A 0
4 4680_1 4680_3 1.4
5 4680_3 *4683:B 0
*END
*D_NET *4684 0.00106536
*CONN
*I *4685:Y O *D _2394
*I *4686:A I *L 0
*I *4687:B I *L 0
*CAP
1 4684_1 0.00100776
2 4684_2 5.76e-05
*RES
1 *4685:Y 4684_1 12.46
2 4684_1 *4686:A 0
3 4684_1 4684_2 0.373333
4 4684_2 *4687:B 0
*END
*D_NET *4688 0.00175392
*CONN
*I *4689:Y O *D _2400
*I *4690:B I *L 0
*I *4691:A I *L 0
*CAP
1 4688_1 0.0012852
2 4688_2 8.16e-05
3 4688_3 0.00038712
*RES
1 *4689:Y 4688_1 16.0333
2 4688_1 4688_2 0.933333
3 4688_2 *4690:B 0
4 4688_1 4688_3 5.08667
5 4688_3 *4691:A 0
*END
*D_NET *4692 0.0003516
*CONN
*I *4693:Y O *D _2403
*I *4694:A I *L 0
*I *4695:B I *L 0
*CAP
1 4692_1 0.0002652
2 4692_2 8.64e-05
*RES
1 *4693:Y 4692_1 3.03333
2 4692_1 *4694:A 0
3 4692_1 4692_2 0.56
4 4692_2 *4695:B 0
*END
*D_NET *4696 0.00085104
*CONN
*I *4697:Y O *D _2409
*I *4698:B I *L 0
*I *4699:A I *L 0
*CAP
1 4696_1 0.00074928
2 4696_2 2.04e-05
3 4696_3 8.136e-05
*RES
1 *4697:Y 4696_1 9.8
2 4696_1 4696_2 0.233333
3 4696_2 *4698:B 0
4 4696_2 4696_3 1.26
5 4696_3 *4699:A 0
*END
*D_NET *4700 0.0003492
*CONN
*I *4701:Y O *D _2412
*I *4702:B I *L 0
*I *4703:A I *L 0
*CAP
1 4700_1 0.0002172
2 4700_2 5.76e-05
3 4700_3 7.44e-05
*RES
1 *4701:Y 4700_1 3.03333
2 4700_1 4700_2 0.373333
3 4700_2 *4702:B 0
4 4700_1 4700_3 1.4
5 4700_3 *4703:A 0
*END
*D_NET *4704 0.00046176
*CONN
*I *4705:Y O *D _2418
*I *4706:B I *L 0
*I *4707:A I *L 0
*CAP
1 4704_1 0.00034656
2 4704_2 4.08e-05
3 4704_3 7.44e-05
*RES
1 *4705:Y 4704_1 4.29333
2 4704_1 4704_2 0.466667
3 4704_2 *4706:B 0
4 4704_1 4704_3 1.4
5 4704_3 *4707:A 0
*END
*D_NET *4708 0.0003228
*CONN
*I *4709:Y O *D _2421
*I *4710:A I *L 0
*I *4711:B I *L 0
*CAP
1 4708_1 0.0002652
2 4708_2 5.76e-05
*RES
1 *4709:Y 4708_1 3.03333
2 4708_1 *4710:A 0
3 4708_1 4708_2 0.373333
4 4708_2 *4711:B 0
*END
*D_NET *4712 0.0001488
*CONN
*I *4713:Y O *D _2427
*I *4714:B I *L 0
*I *4715:A I *L 0
*CAP
1 4712_1 9.12e-05
2 4712_2 5.76e-05
*RES
1 *4713:Y 4712_1 1.30667
2 4712_1 *4714:B 0
3 4712_1 4712_2 0.373333
4 4712_2 *4715:A 0
*END
*D_NET *4716 0.0011772
*CONN
*I *4717:Y O *D _2430
*I *4718:B I *L 0
*I *4719:A I *L 0
*CAP
1 4716_1 0.0010476
2 4716_2 0.0001296
*RES
1 *4717:Y 4716_1 14.4333
2 4716_1 *4718:B 0
3 4716_1 4716_2 0.84
4 4716_2 *4719:A 0
*END
*D_NET *4720 0.00075984
*CONN
*I *4721:Y O *D _2436
*I *4722:B I *L 0
*I *4723:A I *L 0
*CAP
1 4720_1 0.00062424
2 4720_2 2.04e-05
3 4720_3 0.0001152
*RES
1 *4721:Y 4720_1 7.14
2 4720_1 4720_2 0.233333
3 4720_2 *4722:B 0
4 4720_2 4720_3 1.86667
5 4720_3 *4723:A 0
*END
*D_NET *4724 0.0002616
*CONN
*I *4725:Y O *D _2439
*I *4726:B I *L 0
*I *4727:A I *L 0
*CAP
1 4724_1 0.0001632
2 4724_2 4.08e-05
3 4724_3 5.76e-05
*RES
1 *4725:Y 4724_1 1.86667
2 4724_1 4724_2 0.466667
3 4724_2 *4726:B 0
4 4724_1 4724_3 0.373333
5 4724_3 *4727:A 0
*END
*D_NET *4728 0.00053544
*CONN
*I *4729:Y O *D _2445
*I *4730:A I *L 0
*I *4731:B I *L 0
*CAP
1 4728_1 0.00044064
2 4728_2 2.04e-05
3 4728_3 7.44e-05
*RES
1 *4729:Y 4728_1 6.90667
2 4728_1 4728_2 0.233333
3 4728_2 *4730:A 0
4 4728_2 4728_3 1.4
5 4728_3 *4731:B 0
*END
*D_NET *4732 0.0002448
*CONN
*I *4733:Y O *D _2448
*I *4734:B I *L 0
*I *4735:A I *L 0
*CAP
1 4732_1 0.0001152
2 4732_2 0.0001296
*RES
1 *4733:Y 4732_1 1.86667
2 4732_1 *4734:B 0
3 4732_1 4732_2 0.84
4 4732_2 *4735:A 0
*END
*D_NET *4736 0.00058608
*CONN
*I *4737:Y O *D _2454
*I *4738:A I *L 0
*I *4739:B I *L 0
*CAP
1 4736_1 0.00043008
2 4736_2 8.16e-05
3 4736_3 7.44e-05
*RES
1 *4737:Y 4736_1 11.9467
2 4736_1 4736_2 0.933333
3 4736_2 *4738:A 0
4 4736_1 4736_3 1.4
5 4736_3 *4739:B 0
*END
*D_NET *4740 0.00096936
*CONN
*I *4741:Y O *D _2457
*I *4742:B I *L 0
*I *4743:A I *L 0
*CAP
1 4740_1 0.00083976
2 4740_2 0.0001296
*RES
1 *4741:Y 4740_1 11.1533
2 4740_1 *4742:B 0
3 4740_1 4740_2 0.84
4 4740_2 *4743:A 0
*END
*D_NET *4744 0.00027432
*CONN
*I *4745:Y O *D _2463
*I *4746:B I *L 0
*I *4747:A I *L 0
*CAP
1 4744_1 0.00019296
2 4744_2 0
3 4744_3 8.136e-05
*RES
1 *4745:Y 4744_1 4.56
2 4744_1 4744_2 0
3 4744_2 *4746:B 0
4 4744_2 4744_3 1.26
5 4744_3 *4747:A 0
*END
*D_NET *4748 0.00053664
*CONN
*I *4749:Y O *D _2466
*I *4750:B I *L 0
*I *4751:A I *L 0
*CAP
1 4748_1 0.00044856
2 4748_2 2.04e-05
3 4748_3 6.768e-05
*RES
1 *4749:Y 4748_1 5.46
2 4748_1 4748_2 0.233333
3 4748_2 *4750:B 0
4 4748_2 4748_3 1.21333
5 4748_3 *4751:A 0
*END
*D_NET *4752 0.00034296
*CONN
*I *4753:Y O *D _2472
*I *4754:A I *L 0
*I *4755:B I *L 0
*CAP
1 4752_1 0.0002616
2 4752_2 6.12e-05
3 4752_3 2.016e-05
*RES
1 *4753:Y 4752_1 2.70667
2 4752_1 4752_2 0.7
3 4752_2 *4754:A 0
4 4752_1 4752_3 0.56
5 4752_3 *4755:B 0
*END
*D_NET *4756 0.00023088
*CONN
*I *4757:Y O *D _2475
*I *4758:B I *L 0
*I *4759:A I *L 0
*CAP
1 4756_1 0.0001632
2 4756_2 4.08e-05
3 4756_3 2.688e-05
*RES
1 *4757:Y 4756_1 1.86667
2 4756_1 4756_2 0.466667
3 4756_2 *4758:B 0
4 4756_1 4756_3 0.746667
5 4756_3 *4759:A 0
*END
*D_NET *4760 0.00031896
*CONN
*I *4761:Y O *D _2481
*I *4762:B I *L 0
*I *4763:A I *L 0
*CAP
1 4760_1 0.0002172
2 4760_2 2.04e-05
3 4760_3 8.136e-05
*RES
1 *4761:Y 4760_1 3.03333
2 4760_1 4760_2 0.233333
3 4760_2 *4762:B 0
4 4760_2 4760_3 1.26
5 4760_3 *4763:A 0
*END
*D_NET *4764 0.00118032
*CONN
*I *4765:Y O *D _2484
*I *4766:B I *L 0
*I *4767:A I *L 0
*CAP
1 4764_1 0.00111264
2 4764_2 4.08e-05
3 4764_3 2.688e-05
*RES
1 *4765:Y 4764_1 14.3733
2 4764_1 4764_2 0.466667
3 4764_2 *4766:B 0
4 4764_1 4764_3 0.746667
5 4764_3 *4767:A 0
*END
*D_NET *4768 0.00114552
*CONN
*I *4769:Y O *D _2490
*I *4770:B I *L 0
*I *4771:A I *L 0
*CAP
1 4768_1 0.00094176
2 4768_2 2.04e-05
3 4768_3 0.00018336
*RES
1 *4769:Y 4768_1 9.82667
2 4768_1 4768_2 0.233333
3 4768_2 *4770:B 0
4 4768_2 4768_3 2.42667
5 4768_3 *4771:A 0
*END
*D_NET *4772 0.00037368
*CONN
*I *4773:Y O *D _2493
*I *4774:B I *L 0
*I *4775:A I *L 0
*CAP
1 4772_1 0.000204
2 4772_2 6.12e-05
3 4772_3 0.00010848
*RES
1 *4773:Y 4772_1 2.33333
2 4772_1 4772_2 0.7
3 4772_2 *4774:B 0
4 4772_1 4772_3 1.68
5 4772_3 *4775:A 0
*END
*D_NET *4776 0.00020376
*CONN
*I *4777:Y O *D _2499
*I *4778:A I *L 0
*I *4779:B I *L 0
*CAP
1 4776_1 0.000102
2 4776_2 2.04e-05
3 4776_3 8.136e-05
*RES
1 *4777:Y 4776_1 1.16667
2 4776_1 4776_2 0.233333
3 4776_2 *4778:A 0
4 4776_2 4776_3 1.26
5 4776_3 *4779:B 0
*END
*D_NET *4780 0.0002652
*CONN
*I *4781:Y O *D _2502
*I *4782:B I *L 0
*I *4783:A I *L 0
*CAP
1 4780_1 0.00016032
2 4780_2 0
3 4780_3 0.00010488
*RES
1 *4781:Y 4780_1 2.61333
2 4780_1 4780_2 0
3 4780_2 *4782:B 0
4 4780_1 4780_3 1.91333
5 4780_3 *4783:A 0
*END
*D_NET *4784 0.000258
*CONN
*I *4785:Y O *D _2508
*I *4786:A I *L 0
*I *4787:B I *L 0
*CAP
1 4784_1 0.0001836
2 4784_2 4.08e-05
3 4784_3 3.36e-05
*RES
1 *4785:Y 4784_1 2.1
2 4784_1 4784_2 0.466667
3 4784_2 *4786:A 0
4 4784_1 4784_3 0.933333
5 4784_3 *4787:B 0
*END
*D_NET *4788 0.0002208
*CONN
*I *4789:Y O *D _2511
*I *4790:B I *L 0
*I *4791:A I *L 0
*CAP
1 4788_1 0.0001224
2 4788_2 4.08e-05
3 4788_3 5.76e-05
*RES
1 *4789:Y 4788_1 1.4
2 4788_1 4788_2 0.466667
3 4788_2 *4790:B 0
4 4788_1 4788_3 0.373333
5 4788_3 *4791:A 0
*END
*D_NET *4792 0.0004608
*CONN
*I *4793:Y O *D _2517
*I *4794:A I *L 0
*I *4795:B I *L 0
*CAP
1 4792_1 0.00035904
2 4792_2 2.04e-05
3 4792_3 8.136e-05
*RES
1 *4793:Y 4792_1 4.10667
2 4792_1 4792_2 0.233333
3 4792_2 *4794:A 0
4 4792_2 4792_3 1.26
5 4792_3 *4795:B 0
*END
*D_NET *4796 0.00015024
*CONN
*I *4797:Y O *D _2520
*I *4798:B I *L 0
*I *4799:A I *L 0
*CAP
1 4796_1 0.00010656
2 4796_2 0
3 4796_3 4.368e-05
*RES
1 *4797:Y 4796_1 1.12
2 4796_1 4796_2 0
3 4796_2 *4798:B 0
4 4796_1 4796_3 1.21333
5 4796_3 *4799:A 0
*END
*D_NET *4800 0.00013512
*CONN
*I *4801:Y O *D _2526
*I *4802:A I *L 0
*I *4803:B I *L 0
*CAP
1 4800_1 4.032e-05
2 4800_2 0
3 4800_3 9.48e-05
*RES
1 *4801:Y 4800_1 1.12
2 4800_1 4800_2 0
3 4800_2 *4802:A 0
4 4800_1 4800_3 1.63333
5 4800_3 *4803:B 0
*END
*D_NET *4804 0.00046416
*CONN
*I *4805:Q O *D _3996
*I *4806:A I *L 0
*I *4807:A I *L 0
*CAP
1 4804_1 0.0003696
2 4804_2 4.08e-05
3 4804_3 5.376e-05
*RES
1 *4805:Q 4804_1 5.04
2 4804_1 4804_2 0.466667
3 4804_2 *4806:A 0
4 4804_1 4804_3 1.49333
5 4804_3 *4807:A 0
*END
*D_NET *4808 0.00014208
*CONN
*I *4809:Y O *D _2529
*I *4810:A I *L 0
*I *4811:B I *L 0
*CAP
1 4808_1 8.448e-05
2 4808_2 5.76e-05
*RES
1 *4809:Y 4808_1 1.12
2 4808_1 *4810:A 0
3 4808_1 4808_2 0.373333
4 4808_2 *4811:B 0
*END
*D_NET *4812 0.00089832
*CONN
*I *4813:Y O *D _2535
*I *4814:A I *L 0
*I *4815:B I *L 0
*CAP
1 4812_1 0.00074256
2 4812_2 6.096e-05
3 4812_3 9.48e-05
*RES
1 *4813:Y 4812_1 8.96
2 4812_1 4812_2 1.02667
3 4812_2 *4814:A 0
4 4812_1 4812_3 1.63333
5 4812_3 *4815:B 0
*END
*D_NET *4816 0.00044112
*CONN
*I *4817:Q O *D _3997
*I *4818:A I *L 0
*I *4819:A I *L 0
*CAP
1 4816_1 0.00031152
2 4816_2 0.0001296
*RES
1 *4817:Q 4816_1 5.32
2 4816_1 *4818:A 0
3 4816_1 4816_2 0.84
4 4816_2 *4819:A 0
*END
*D_NET *4820 0.00034752
*CONN
*I *4821:Y O *D _2538
*I *4822:B I *L 0
*I *4823:A I *L 0
*CAP
1 4820_1 0.00021864
2 4820_2 4.08e-05
3 4820_3 8.808e-05
*RES
1 *4821:Y 4820_1 2.07333
2 4820_1 4820_2 0.466667
3 4820_2 *4822:B 0
4 4820_1 4820_3 1.44667
5 4820_3 *4823:A 0
*END
*D_NET *4824 0.00044016
*CONN
*I *4825:Y O *D _2544
*I *4826:A I *L 0
*I *4827:B I *L 0
*CAP
1 4824_1 0.00025728
2 4824_2 8.16e-05
3 4824_3 0.00010128
*RES
1 *4825:Y 4824_1 4.48
2 4824_1 4824_2 0.933333
3 4824_2 *4826:A 0
4 4824_1 4824_3 2.14667
5 4824_3 *4827:B 0
*END
*D_NET *4828 0.0006168
*CONN
*I *4829:Q O *D _3998
*I *4830:A I *L 0
*I *4831:A I *L 0
*CAP
1 4828_1 0.00021
2 4828_2 0.0004068
*RES
1 *4829:Q 4828_1 3.5
2 4828_1 *4830:A 0
3 4828_1 4828_2 6.3
4 4828_2 *4831:A 0
*END
*D_NET *4832 0.00032928
*CONN
*I *4833:Y O *D _2547
*I *4834:B I *L 0
*I *4835:A I *L 0
*CAP
1 4832_1 8.448e-05
2 4832_2 0.0002448
*RES
1 *4833:Y 4832_1 1.12
2 4832_1 *4834:B 0
3 4832_1 4832_2 1.58667
4 4832_2 *4835:A 0
*END
*D_NET *4836 0.0002916
*CONN
*I *4837:Y O *D _2553
*I *4838:A I *L 0
*I *4839:B I *L 0
*CAP
1 4836_1 0.00021024
2 4836_2 6.12e-05
3 4836_3 2.016e-05
*RES
1 *4837:Y 4836_1 3.17333
2 4836_1 4836_2 0.7
3 4836_2 *4838:A 0
4 4836_1 4836_3 0.56
5 4836_3 *4839:B 0
*END
*D_NET *4840 0.00061608
*CONN
*I *4841:Q O *D _3999
*I *4842:A I *L 0
*I *4843:A I *L 0
*CAP
1 4840_1 0.00042024
2 4840_2 2.04e-05
3 4840_3 0.00017544
*RES
1 *4841:Q 4840_1 4.80667
2 4840_1 4840_2 0.233333
3 4840_2 *4842:A 0
4 4840_2 4840_3 2.00667
5 4840_3 *4843:A 0
*END
*D_NET *4844 0.00037944
*CONN
*I *4845:Y O *D _2556
*I *4846:B I *L 0
*I *4847:A I *L 0
*CAP
1 4844_1 0.00020976
2 4844_2 6.12e-05
3 4844_3 0.00010848
*RES
1 *4845:Y 4844_1 3.82667
2 4844_1 4844_2 0.7
3 4844_2 *4846:B 0
4 4844_1 4844_3 1.68
5 4844_3 *4847:A 0
*END
*D_NET *4848 0.00171816
*CONN
*I *4849:Y O *D _2562
*I *4850:B I *L 0
*I *4851:A I *L 0
*CAP
1 4848_1 0.00116376
2 4848_2 0.0005544
*RES
1 *4849:Y 4848_1 15.3933
2 4848_1 *4850:B 0
3 4848_1 4848_2 7.56
4 4848_2 *4851:A 0
*END
*D_NET *4852 0.0005448
*CONN
*I *4853:Q O *D _4000
*I *4854:A I *L 0
*I *4855:A I *L 0
*CAP
1 4852_1 8.64e-05
2 4852_2 0.0004584
*RES
1 *4853:Q 4852_1 0.56
2 4852_1 *4854:A 0
3 4852_1 4852_2 5.50667
4 4852_2 *4855:A 0
*END
*D_NET *4856 0.00164928
*CONN
*I *4857:Y O *D _2565
*I *4858:A I *L 0
*I *4859:B I *L 0
*CAP
1 4856_1 0.00151824
2 4856_2 0.00013104
*RES
1 *4857:Y 4856_1 19.44
2 4856_1 *4858:A 0
3 4856_1 4856_2 1.21333
4 4856_2 *4859:B 0
*END
*D_NET *4860 0.00026496
*CONN
*I *4861:Y O *D _2571
*I *4862:B I *L 0
*I *4863:A I *L 0
*CAP
1 4860_1 0.0001632
2 4860_2 2.04e-05
3 4860_3 8.136e-05
*RES
1 *4861:Y 4860_1 1.86667
2 4860_1 4860_2 0.233333
3 4860_2 *4862:B 0
4 4860_2 4860_3 1.26
5 4860_3 *4863:A 0
*END
*D_NET *4864 0.00059712
*CONN
*I *4865:Q O *D _4001
*I *4866:A I *L 0
*I *4867:A I *L 0
*CAP
1 4864_1 2.04e-05
2 4864_2 0.00037344
3 4864_3 0.00020328
*RES
1 *4865:Q 4864_1 0.233333
2 4864_1 4864_2 5.04
3 4864_2 *4866:A 0
4 4864_1 4864_3 3.31333
5 4864_3 *4867:A 0
*END
*D_NET *4868 0.00016248
*CONN
*I *4869:Y O *D _2574
*I *4870:B I *L 0
*I *4871:A I *L 0
*CAP
1 4868_1 3.36e-05
2 4868_2 4.08e-05
3 4868_3 8.808e-05
*RES
1 *4869:Y 4868_1 0.933333
2 4868_1 4868_2 0.466667
3 4868_2 *4870:B 0
4 4868_1 4868_3 1.44667
5 4868_3 *4871:A 0
*END
*D_NET *4872 0.0008568
*CONN
*I *4873:Y O *D _2580
*I *4874:A I *L 0
*I *4875:B I *L 0
*CAP
1 4872_1 0.00079584
2 4872_2 4.08e-05
3 4872_3 2.016e-05
*RES
1 *4873:Y 4872_1 9.10667
2 4872_1 4872_2 0.466667
3 4872_2 *4874:A 0
4 4872_1 4872_3 0.56
5 4872_3 *4875:B 0
*END
*D_NET *4876 0.00046824
*CONN
*I *4877:Q O *D _4002
*I *4878:A I *L 0
*I *4879:A I *L 0
*CAP
1 4876_1 0.00038688
2 4876_2 6.096e-05
3 4876_3 2.04e-05
*RES
1 *4877:Q 4876_1 5.41333
2 4876_1 4876_2 1.02667
3 4876_2 *4878:A 0
4 4876_1 4876_3 0.233333
5 4876_3 *4879:A 0
*END
*D_NET *4880 0.00167616
*CONN
*I *4881:Y O *D _2583
*I *4882:B I *L 0
*I *4883:A I *L 0
*CAP
1 4880_1 0.00158808
2 4880_2 2.04e-05
3 4880_3 6.768e-05
*RES
1 *4881:Y 4880_1 20.18
2 4880_1 4880_2 0.233333
3 4880_2 *4882:B 0
4 4880_2 4880_3 1.21333
5 4880_3 *4883:A 0
*END
*D_NET *4884 0.00014904
*CONN
*I *4885:Y O *D _2589
*I *4886:B I *L 0
*I *4887:A I *L 0
*CAP
1 4884_1 2.688e-05
2 4884_2 0
3 4884_3 0.00012216
*RES
1 *4885:Y 4884_1 0.746667
2 4884_1 4884_2 0
3 4884_2 *4886:B 0
4 4884_2 4884_3 1.72667
5 4884_3 *4887:A 0
*END
*D_NET *4888 0.00021696
*CONN
*I *4889:Q O *D _4003
*I *4890:A I *L 0
*I *4891:A I *L 0
*CAP
1 4888_1 0.000156
2 4888_2 0
3 4888_3 6.096e-05
*RES
1 *4889:Q 4888_1 2.33333
2 4888_1 4888_2 0
3 4888_2 *4890:A 0
4 4888_1 4888_3 1.02667
5 4888_3 *4891:A 0
*END
*D_NET *4892 0.00024528
*CONN
*I *4893:Y O *D _2592
*I *4894:B I *L 0
*I *4895:A I *L 0
*CAP
1 4892_1 0.00011328
2 4892_2 5.76e-05
3 4892_3 7.44e-05
*RES
1 *4893:Y 4892_1 1.30667
2 4892_1 4892_2 0.373333
3 4892_2 *4894:B 0
4 4892_1 4892_3 1.4
5 4892_3 *4895:A 0
*END
*D_NET *4896 0.00037344
*CONN
*I *4897:Y O *D _2598
*I *4898:A I *L 0
*I *4899:B I *L 0
*CAP
1 4896_1 6.768e-05
2 4896_2 0.0001632
3 4896_3 0.00014256
*RES
1 *4897:Y 4896_1 1.21333
2 4896_1 4896_2 1.86667
3 4896_2 *4898:A 0
4 4896_1 4896_3 1.96
5 4896_3 *4899:B 0
*END
*D_NET *4900 0.00042336
*CONN
*I *4901:Q O *D _4004
*I *4902:A I *L 0
*I *4903:A I *L 0
*CAP
1 4900_1 0.00025776
2 4900_2 5.76e-05
3 4900_3 0.000108
*RES
1 *4901:Q 4900_1 3.82667
2 4900_1 4900_2 0.373333
3 4900_2 *4902:A 0
4 4900_1 4900_3 0.7
5 4900_3 *4903:A 0
*END
*D_NET *4904 0.00107904
*CONN
*I *4905:Y O *D _2601
*I *4906:B I *L 0
*I *4907:A I *L 0
*CAP
1 4904_1 0.00092976
2 4904_2 2.04e-05
3 4904_3 0.00012888
*RES
1 *4905:Y 4904_1 11.2933
2 4904_1 4904_2 0.233333
3 4904_2 *4906:B 0
4 4904_2 4904_3 1.91333
5 4904_3 *4907:A 0
*END
*D_NET *4908 0.00015912
*CONN
*I *4909:Y O *D _2607
*I *4910:A I *L 0
*I *4911:B I *L 0
*CAP
1 4908_1 7.776e-05
2 4908_2 0
3 4908_3 8.136e-05
*RES
1 *4909:Y 4908_1 0.933333
2 4908_1 4908_2 0
3 4908_2 *4910:A 0
4 4908_1 4908_3 1.26
5 4908_3 *4911:B 0
*END
*D_NET *4912 0.00044544
*CONN
*I *4913:Q O *D _4005
*I *4914:A I *L 0
*I *4915:A I *L 0
*CAP
1 4912_1 8.64e-05
2 4912_2 0.00035904
*RES
1 *4913:Q 4912_1 0.56
2 4912_1 *4914:A 0
3 4912_1 4912_2 4.10667
4 4912_2 *4915:A 0
*END
*D_NET *4916 0.00017424
*CONN
*I *4917:Y O *D _2610
*I *4918:B I *L 0
*I *4919:A I *L 0
*CAP
1 4916_1 0.00010656
2 4916_2 0
3 4916_3 6.768e-05
*RES
1 *4917:Y 4916_1 1.12
2 4916_1 4916_2 0
3 4916_2 *4918:B 0
4 4916_1 4916_3 1.21333
5 4916_3 *4919:A 0
*END
*D_NET *4920 0.00011472
*CONN
*I *4921:Y O *D _2616
*I *4922:A I *L 0
*I *4923:B I *L 0
*CAP
1 4920_1 5.376e-05
2 4920_2 0
3 4920_3 6.096e-05
*RES
1 *4921:Y 4920_1 1.49333
2 4920_1 4920_2 0
3 4920_2 *4922:A 0
4 4920_1 4920_3 1.02667
5 4920_3 *4923:B 0
*END
*D_NET *4924 0.00094728
*CONN
*I *4925:Q O *D _4006
*I *4926:A I *L 0
*I *4927:A I *L 0
*CAP
1 4924_1 0.00021624
2 4924_2 2.04e-05
3 4924_3 0.00071064
*RES
1 *4925:Q 4924_1 2.47333
2 4924_1 4924_2 0.233333
3 4924_2 *4926:A 0
4 4924_2 4924_3 7.67333
5 4924_3 *4927:A 0
*END
*D_NET *4928 0.00017088
*CONN
*I *4929:Y O *D _2619
*I *4930:A I *L 0
*I *4931:B I *L 0
*CAP
1 4928_1 8.448e-05
2 4928_2 8.64e-05
*RES
1 *4929:Y 4928_1 1.12
2 4928_1 *4930:A 0
3 4928_1 4928_2 0.56
4 4928_2 *4931:B 0
*END
*D_NET *4932 0.00021024
*CONN
*I *4933:Y O *D _2625
*I *4934:B I *L 0
*I *4935:A I *L 0
*CAP
1 4932_1 8.808e-05
2 4932_2 2.04e-05
3 4932_3 0.00010176
*RES
1 *4933:Y 4932_1 1.44667
2 4932_1 4932_2 0.233333
3 4932_2 *4934:B 0
4 4932_2 4932_3 1.49333
5 4932_3 *4935:A 0
*END
*D_NET *4936 0.0007092
*CONN
*I *4937:Q O *D _4007
*I *4938:A I *L 0
*I *4939:A I *L 0
*CAP
1 4936_1 8.64e-05
2 4936_2 0.0006228
*RES
1 *4937:Q 4936_1 0.56
2 4936_1 *4938:A 0
3 4936_1 4936_2 9.1
4 4936_2 *4939:A 0
*END
*D_NET *4940 0.00094488
*CONN
*I *4941:Y O *D _2628
*I *4942:A I *L 0
*I *4943:B I *L 0
*CAP
1 4940_1 0.00074928
2 4940_2 6.12e-05
3 4940_3 0.0001344
*RES
1 *4941:Y 4940_1 12.68
2 4940_1 4940_2 0.7
3 4940_2 *4942:A 0
4 4940_1 4940_3 1.86667
5 4940_3 *4943:B 0
*END
*D_NET *4944 0.00011472
*CONN
*I *4945:Y O *D _2634
*I *4946:A I *L 0
*I *4947:B I *L 0
*CAP
1 4944_1 5.376e-05
2 4944_2 0
3 4944_3 6.096e-05
*RES
1 *4945:Y 4944_1 1.49333
2 4944_1 4944_2 0
3 4944_2 *4946:A 0
4 4944_1 4944_3 1.02667
5 4944_3 *4947:B 0
*END
*D_NET *4948 0.00112992
*CONN
*I *4949:Q O *D _4008
*I *4950:A I *L 0
*I *4951:A I *L 0
*CAP
1 4948_1 8.64e-05
2 4948_2 0.00104352
*RES
1 *4949:Q 4948_1 0.56
2 4948_1 *4950:A 0
3 4948_1 4948_2 14.8533
4 4948_2 *4951:A 0
*END
*D_NET *4952 0.00039456
*CONN
*I *4953:Y O *D _2637
*I *4954:A I *L 0
*I *4955:B I *L 0
*CAP
1 4952_1 0.00032016
2 4952_2 1.344e-05
3 4952_3 6.096e-05
*RES
1 *4953:Y 4952_1 3.09333
2 4952_1 4952_2 0.373333
3 4952_2 *4954:A 0
4 4952_1 4952_3 1.02667
5 4952_3 *4955:B 0
*END
*D_NET *4956 0.00033888
*CONN
*I *4957:Y O *D _2643
*I *4958:A I *L 0
*I *4959:B I *L 0
*CAP
1 4956_1 0.00024408
2 4956_2 6.12e-05
3 4956_3 3.36e-05
*RES
1 *4957:Y 4956_1 3.78
2 4956_1 4956_2 0.7
3 4956_2 *4958:A 0
4 4956_1 4956_3 0.933333
5 4956_3 *4959:B 0
*END
*D_NET *4960 0.00069312
*CONN
*I *4961:Q O *D _4009
*I *4962:A I *L 0
*I *4963:A I *L 0
*CAP
1 4960_1 0.00036648
2 4960_2 0.00010152
3 4960_3 0.00022512
*RES
1 *4961:Q 4960_1 5.18
2 4960_1 4960_2 1.82
3 4960_2 *4962:A 0
4 4960_1 4960_3 2.52
5 4960_3 *4963:A 0
*END
*D_NET *4964 0.00014568
*CONN
*I *4965:Y O *D _2646
*I *4966:B I *L 0
*I *4967:A I *L 0
*CAP
1 4964_1 4.728e-05
2 4964_2 4.08e-05
3 4964_3 5.76e-05
*RES
1 *4965:Y 4964_1 0.98
2 4964_1 4964_2 0.466667
3 4964_2 *4966:B 0
4 4964_1 4964_3 0.373333
5 4964_3 *4967:A 0
*END
*D_NET *4968 0.00052224
*CONN
*I *4969:Y O *D _2652
*I *4970:B I *L 0
*I *4971:A I *L 0
*CAP
1 4968_1 0.00037968
2 4968_2 8.16e-05
3 4968_3 6.096e-05
*RES
1 *4969:Y 4968_1 5.88
2 4968_1 4968_2 0.933333
3 4968_2 *4970:B 0
4 4968_1 4968_3 1.02667
5 4968_3 *4971:A 0
*END
*D_NET *4972 0.00058992
*CONN
*I *4973:Q O *D _4010
*I *4974:A I *L 0
*I *4975:A I *L 0
*CAP
1 4972_1 5.376e-05
2 4972_2 0.0001836
3 4972_3 0.00035256
*RES
1 *4973:Q 4972_1 1.49333
2 4972_1 4972_2 2.1
3 4972_2 *4974:A 0
4 4972_1 4972_3 5.46
5 4972_3 *4975:A 0
*END
*D_NET *4976 0.0003168
*CONN
*I *4977:Y O *D _2655
*I *4978:B I *L 0
*I *4979:A I *L 0
*CAP
1 4976_1 0.00024912
2 4976_2 0
3 4976_3 6.768e-05
*RES
1 *4977:Y 4976_1 5.69333
2 4976_1 4976_2 0
3 4976_2 *4978:B 0
4 4976_1 4976_3 1.21333
5 4976_3 *4979:A 0
*END
*D_NET *4980 0.00060864
*CONN
*I *4981:Y O *D _2661
*I *4982:A I *L 0
*I *4983:B I *L 0
*CAP
1 4980_1 0.00052728
2 4980_2 6.12e-05
3 4980_3 2.016e-05
*RES
1 *4981:Y 4980_1 6.31333
2 4980_1 4980_2 0.7
3 4980_2 *4982:A 0
4 4980_1 4980_3 0.56
5 4980_3 *4983:B 0
*END
*D_NET *4984 0.00079872
*CONN
*I *4985:Q O *D _4011
*I *4986:A I *L 0
*I *4987:A I *L 0
*CAP
1 4984_1 0.0003264
2 4984_2 0.00018192
3 4984_3 0.0002904
*RES
1 *4985:Q 4984_1 3.73333
2 4984_1 4984_2 4.38667
3 4984_2 *4986:A 0
4 4984_1 4984_3 6.06667
5 4984_3 *4987:A 0
*END
*D_NET *4988 0.00024624
*CONN
*I *4989:Y O *D _2664
*I *4990:B I *L 0
*I *4991:A I *L 0
*CAP
1 4988_1 5.304e-05
2 4988_2 9.84e-05
3 4988_3 9.48e-05
*RES
1 *4989:Y 4988_1 0.606667
2 4988_1 4988_2 0.84
3 4988_2 *4990:B 0
4 4988_1 4988_3 1.63333
5 4988_3 *4991:A 0
*END
*D_NET *4992 0.00081624
*CONN
*I *4993:Y O *D _2670
*I *4994:B I *L 0
*I *4995:A I *L 0
*CAP
1 4992_1 0.00073488
2 4992_2 0
3 4992_3 8.136e-05
*RES
1 *4993:Y 4992_1 16.0133
2 4992_1 4992_2 0
3 4992_2 *4994:B 0
4 4992_2 4992_3 1.26
5 4992_3 *4995:A 0
*END
*D_NET *4996 0.00028416
*CONN
*I *4997:Q O *D _4012
*I *4998:A I *L 0
*I *4999:A I *L 0
*CAP
1 4996_1 0.00021648
2 4996_2 0
3 4996_3 6.768e-05
*RES
1 *4997:Q 4996_1 4.01333
2 4996_1 4996_2 0
3 4996_2 *4998:A 0
4 4996_2 4996_3 1.21333
5 4996_3 *4999:A 0
*END
*D_NET *5000 0.00026616
*CONN
*I *5001:Y O *D _2673
*I *5002:B I *L 0
*I *5003:A I *L 0
*CAP
1 5000_1 8.64e-05
2 5000_2 0.00017976
*RES
1 *5001:Y 5000_1 0.56
2 5000_1 *5002:B 0
3 5000_1 5000_2 2.1
4 5000_2 *5003:A 0
*END
*D_NET *5004 0.0001416
*CONN
*I *5005:Y O *D _2679
*I *5006:A I *L 0
*I *5007:B I *L 0
*CAP
1 5004_1 8.064e-05
2 5004_2 0
3 5004_3 6.096e-05
*RES
1 *5005:Y 5004_1 2.24
2 5004_1 5004_2 0
3 5004_2 *5006:A 0
4 5004_1 5004_3 1.02667
5 5004_3 *5007:B 0
*END
*D_NET *5008 0.00035112
*CONN
*I *5009:Q O *D _4013
*I *5010:A I *L 0
*I *5011:A I *L 0
*CAP
1 5008_1 8.64e-05
2 5008_2 0.00026472
*RES
1 *5009:Q 5008_1 0.56
2 5008_1 *5010:A 0
3 5008_1 5008_2 3.68667
4 5008_2 *5011:A 0
*END
*D_NET *5012 0.000228
*CONN
*I *5013:Y O *D _2682
*I *5014:B I *L 0
*I *5015:A I *L 0
*CAP
1 5012_1 0.00016032
2 5012_2 0
3 5012_3 6.768e-05
*RES
1 *5013:Y 5012_1 2.61333
2 5012_1 5012_2 0
3 5012_2 *5014:B 0
4 5012_1 5012_3 1.21333
5 5012_3 *5015:A 0
*END
*D_NET *5016 0.00050856
*CONN
*I *5017:Y O *D _2688
*I *5018:A I *L 0
*I *5019:B I *L 0
*CAP
1 5016_1 0.00031176
2 5016_2 2.04e-05
3 5016_3 0.0001764
*RES
1 *5017:Y 5016_1 4.99333
2 5016_1 5016_2 0.233333
3 5016_2 *5018:A 0
4 5016_2 5016_3 2.56667
5 5016_3 *5019:B 0
*END
*D_NET *5020 0.00025056
*CONN
*I *5021:Q O *D _4014
*I *5022:A I *L 0
*I *5023:A I *L 0
*CAP
1 5020_1 3.36e-05
2 5020_2 2.04e-05
3 5020_3 0.00019656
*RES
1 *5021:Q 5020_1 0.933333
2 5020_1 5020_2 0.233333
3 5020_2 *5022:A 0
4 5020_2 5020_3 3.12667
5 5020_3 *5023:A 0
*END
*D_NET *5024 0.00018
*CONN
*I *5025:Y O *D _2691
*I *5026:A I *L 0
*I *5027:B I *L 0
*CAP
1 5024_1 0.0001224
2 5024_2 5.76e-05
*RES
1 *5025:Y 5024_1 1.4
2 5024_1 *5026:A 0
3 5024_1 5024_2 0.373333
4 5024_2 *5027:B 0
*END
*D_NET *5028 0.00117288
*CONN
*I *5029:Y O *D _2697
*I *5030:A I *L 0
*I *5031:B I *L 0
*CAP
1 5028_1 0.00091488
2 5028_2 0.000102
3 5028_3 0.000156
*RES
1 *5029:Y 5028_1 14.7467
2 5028_1 5028_2 1.16667
3 5028_2 *5030:A 0
4 5028_1 5028_3 2.33333
5 5028_3 *5031:B 0
*END
*D_NET *5032 0.00039792
*CONN
*I *5033:Q O *D _4015
*I *5034:A I *L 0
*I *5035:A I *L 0
*CAP
1 5032_1 9.384e-05
2 5032_2 6.12e-05
3 5032_3 0.00024288
*RES
1 *5033:Q 5032_1 1.07333
2 5032_1 5032_2 0.7
3 5032_2 *5034:A 0
4 5032_1 5032_3 5.41333
5 5032_3 *5035:A 0
*END
*D_NET *5036 0.00043392
*CONN
*I *5037:Y O *D _2700
*I *5038:B I *L 0
*I *5039:A I *L 0
*CAP
1 5036_1 0.00030432
2 5036_2 0.0001296
*RES
1 *5037:Y 5036_1 5.78667
2 5036_1 *5038:B 0
3 5036_1 5036_2 0.84
4 5036_2 *5039:A 0
*END
*D_NET *5040 8.784e-05
*CONN
*I *5041:Y O *D _2706
*I *5042:B I *L 0
*I *5043:A I *L 0
*CAP
1 5040_1 2.688e-05
2 5040_2 0
3 5040_3 6.096e-05
*RES
1 *5041:Y 5040_1 0.746667
2 5040_1 5040_2 0
3 5040_2 *5042:B 0
4 5040_1 5040_3 1.02667
5 5040_3 *5043:A 0
*END
*D_NET *5044 0.00206784
*CONN
*I *5045:Q O *D _4016
*I *5046:A I *L 0
*I *5047:A I *L 0
*CAP
1 5044_1 0.00076416
2 5044_2 2.04e-05
3 5044_3 0.00128328
*RES
1 *5045:Q 5044_1 9.89333
2 5044_1 5044_2 0.233333
3 5044_2 *5046:A 0
4 5044_2 5044_3 16.2467
5 5044_3 *5047:A 0
*END
*D_NET *5048 0.00063072
*CONN
*I *5049:Y O *D _2709
*I *5050:B I *L 0
*I *5051:A I *L 0
*CAP
1 5048_1 0.00042024
2 5048_2 8.16e-05
3 5048_3 0.00012888
*RES
1 *5049:Y 5048_1 6.67333
2 5048_1 5048_2 0.933333
3 5048_2 *5050:B 0
4 5048_1 5048_3 1.91333
5 5048_3 *5051:A 0
*END
*D_NET *5052 0.00033096
*CONN
*I *5053:Y O *D _2715
*I *5054:A I *L 0
*I *5055:B I *L 0
*CAP
1 5052_1 0.00027
2 5052_2 0
3 5052_3 6.096e-05
*RES
1 *5053:Y 5052_1 5.83333
2 5052_1 5052_2 0
3 5052_2 *5054:A 0
4 5052_1 5052_3 1.02667
5 5052_3 *5055:B 0
*END
*D_NET *5056 0.00033408
*CONN
*I *5057:Q O *D _4017
*I *5058:A I *L 0
*I *5059:A I *L 0
*CAP
1 5056_1 0.00012816
2 5056_2 0
3 5056_3 0.00020592
*RES
1 *5057:Q 5056_1 2.33333
2 5056_1 5056_2 0
3 5056_2 *5058:A 0
4 5056_1 5056_3 3.82667
5 5056_3 *5059:A 0
*END
*D_NET *5060 0.00057528
*CONN
*I *5061:Y O *D _2718
*I *5062:B I *L 0
*I *5063:A I *L 0
*CAP
1 5060_1 0.0005076
2 5060_2 0
3 5060_3 6.768e-05
*RES
1 *5061:Y 5060_1 5.9
2 5060_1 5060_2 0
3 5060_2 *5062:B 0
4 5060_1 5060_3 1.21333
5 5060_3 *5063:A 0
*END
*D_NET *5064 0.00106512
*CONN
*I *5065:Y O *D _2724
*I *5066:A I *L 0
*I *5067:B I *L 0
*CAP
1 5064_1 0.00098376
2 5064_2 2.016e-05
3 5064_3 6.12e-05
*RES
1 *5065:Y 5064_1 12.5267
2 5064_1 5064_2 0.56
3 5064_2 *5066:A 0
4 5064_1 5064_3 0.7
5 5064_3 *5067:B 0
*END
*D_NET *5068 0.00033192
*CONN
*I *5069:Q O *D _4018
*I *5070:A I *L 0
*I *5071:A I *L 0
*CAP
1 5068_1 2.04e-05
2 5068_2 0.00014928
3 5068_3 0.00016224
*RES
1 *5069:Q 5068_1 0.233333
2 5068_1 5068_2 2.14667
3 5068_2 *5070:A 0
4 5068_1 5068_3 3.17333
5 5068_3 *5071:A 0
*END
*D_NET *5072 0.00013488
*CONN
*I *5073:Y O *D _2727
*I *5074:B I *L 0
*I *5075:A I *L 0
*CAP
1 5072_1 6.72e-05
2 5072_2 0
3 5072_3 6.768e-05
*RES
1 *5073:Y 5072_1 1.86667
2 5072_1 5072_2 0
3 5072_2 *5074:B 0
4 5072_1 5072_3 1.21333
5 5072_3 *5075:A 0
*END
*D_NET *5076 0.00073608
*CONN
*I *5077:Y O *D _2733
*I *5078:A I *L 0
*I *5079:B I *L 0
*CAP
1 5076_1 0.00047112
2 5076_2 0.000102
3 5076_3 0.00016296
*RES
1 *5077:Y 5076_1 8.91333
2 5076_1 5076_2 1.16667
3 5076_2 *5078:A 0
4 5076_1 5076_3 2.19333
5 5076_3 *5079:B 0
*END
*D_NET *5080 0.0017196
*CONN
*I *5081:Q O *D _4019
*I *5082:A I *L 0
*I *5083:A I *L 0
*CAP
1 5080_1 0.00016272
2 5080_2 2.04e-05
3 5080_3 0.00153648
*RES
1 *5081:Q 5080_1 2.52
2 5080_1 5080_2 0.233333
3 5080_2 *5082:A 0
4 5080_2 5080_3 24.4133
5 5080_3 *5083:A 0
*END
*D_NET *5084 0.00024624
*CONN
*I *5085:Y O *D _2736
*I *5086:B I *L 0
*I *5087:A I *L 0
*CAP
1 5084_1 5.304e-05
2 5084_2 9.84e-05
3 5084_3 9.48e-05
*RES
1 *5085:Y 5084_1 0.606667
2 5084_1 5084_2 0.84
3 5084_2 *5086:B 0
4 5084_1 5084_3 1.63333
5 5084_3 *5087:A 0
*END
*D_NET *5088 0.0002232
*CONN
*I *5089:Y O *D _2742
*I *5090:A I *L 0
*I *5091:B I *L 0
*CAP
1 5088_1 4.032e-05
2 5088_2 8.16e-05
3 5088_3 0.00010128
*RES
1 *5089:Y 5088_1 1.12
2 5088_1 5088_2 0.933333
3 5088_2 *5090:A 0
4 5088_1 5088_3 2.14667
5 5088_3 *5091:B 0
*END
*D_NET *5092 0.00023568
*CONN
*I *5093:Q O *D _4020
*I *5094:A I *L 0
*I *5095:A I *L 0
*CAP
1 5092_1 8.64e-05
2 5092_2 0.00014928
*RES
1 *5093:Q 5092_1 0.56
2 5092_1 *5094:A 0
3 5092_1 5092_2 2.14667
4 5092_2 *5095:A 0
*END
*D_NET *5096 0.0003168
*CONN
*I *5097:Y O *D _2745
*I *5098:B I *L 0
*I *5099:A I *L 0
*CAP
1 5096_1 7.44e-05
2 5096_2 9.84e-05
3 5096_3 0.000144
*RES
1 *5097:Y 5096_1 1.4
2 5096_1 5096_2 0.84
3 5096_2 *5098:B 0
4 5096_1 5096_3 0.933333
5 5096_3 *5099:A 0
*END
*D_NET *5100 0.0003384
*CONN
*I *5101:Y O *D _2751
*I *5102:A I *L 0
*I *5103:B I *L 0
*CAP
1 5100_1 0.00023664
2 5100_2 2.04e-05
3 5100_3 8.136e-05
*RES
1 *5101:Y 5100_1 2.70667
2 5100_1 5100_2 0.233333
3 5100_2 *5102:A 0
4 5100_2 5100_3 1.26
5 5100_3 *5103:B 0
*END
*D_NET *5104 0.00020352
*CONN
*I *5105:Q O *D _4021
*I *5106:A I *L 0
*I *5107:A I *L 0
*CAP
1 5104_1 0.0001224
2 5104_2 2.016e-05
3 5104_3 6.096e-05
*RES
1 *5105:Q 5104_1 1.4
2 5104_1 5104_2 0.56
3 5104_2 *5106:A 0
4 5104_1 5104_3 1.02667
5 5104_3 *5107:A 0
*END
*D_NET *5108 0.00061488
*CONN
*I *5109:Y O *D _2754
*I *5110:B I *L 0
*I *5111:A I *L 0
*CAP
1 5108_1 0.0005268
2 5108_2 2.04e-05
3 5108_3 6.768e-05
*RES
1 *5109:Y 5108_1 6.1
2 5108_1 5108_2 0.233333
3 5108_2 *5110:B 0
4 5108_2 5108_3 1.21333
5 5108_3 *5111:A 0
*END
*D_NET *5112 0.00013824
*CONN
*I *5113:Y O *D _2760
*I *5114:A I *L 0
*I *5115:B I *L 0
*CAP
1 5112_1 4.704e-05
2 5112_2 0
3 5112_3 9.12e-05
*RES
1 *5113:Y 5112_1 1.30667
2 5112_1 5112_2 0
3 5112_2 *5114:A 0
4 5112_1 5112_3 1.86667
5 5112_3 *5115:B 0
*END
*D_NET *5116 0.0005892
*CONN
*I *5117:Q O *D _4022
*I *5118:A I *L 0
*I *5119:A I *L 0
*CAP
1 5116_1 9.984e-05
2 5116_2 0.00041544
3 5116_3 7.392e-05
*RES
1 *5117:Q 5116_1 0.973333
2 5116_1 5116_2 5.54
3 5116_2 *5118:A 0
4 5116_1 5116_3 2.05333
5 5116_3 *5119:A 0
*END
*D_NET *5120 0.0004872
*CONN
*I *5121:Y O *D _2763
*I *5122:A I *L 0
*I *5123:B I *L 0
*CAP
1 5120_1 0.0004296
2 5120_2 5.76e-05
*RES
1 *5121:Y 5120_1 5.26667
2 5120_1 *5122:A 0
3 5120_1 5120_2 0.373333
4 5120_2 *5123:B 0
*END
*D_NET *5124 0.00010824
*CONN
*I *5125:Y O *D _2769
*I *5126:A I *L 0
*I *5127:B I *L 0
*CAP
1 5124_1 2.688e-05
2 5124_2 6.12e-05
3 5124_3 2.016e-05
*RES
1 *5125:Y 5124_1 0.746667
2 5124_1 5124_2 0.7
3 5124_2 *5126:A 0
4 5124_1 5124_3 0.56
5 5124_3 *5127:B 0
*END
*D_NET *5128 0.00033744
*CONN
*I *5129:Q O *D _4023
*I *5130:A I *L 0
*I *5131:A I *L 0
*CAP
1 5128_1 0.00025104
2 5128_2 8.64e-05
*RES
1 *5129:Q 5128_1 3.64
2 5128_1 *5130:A 0
3 5128_1 5128_2 0.56
4 5128_2 *5131:A 0
*END
*D_NET *5132 0.0002712
*CONN
*I *5133:Y O *D _2772
*I *5134:B I *L 0
*I *5135:A I *L 0
*CAP
1 5132_1 0.00020352
2 5132_2 4.08e-05
3 5132_3 2.688e-05
*RES
1 *5133:Y 5132_1 2.98667
2 5132_1 5132_2 0.466667
3 5132_2 *5134:B 0
4 5132_1 5132_3 0.746667
5 5132_3 *5135:A 0
*END
*D_NET *5136 0.00021744
*CONN
*I *5137:Y O *D _2778
*I *5138:B I *L 0
*I *5139:A I *L 0
*CAP
1 5136_1 0.00015984
2 5136_2 5.76e-05
*RES
1 *5137:Y 5136_1 1.4
2 5136_1 *5138:B 0
3 5136_1 5136_2 0.373333
4 5136_2 *5139:A 0
*END
*D_NET *5140 0.00091608
*CONN
*I *5141:Q O *D _4024
*I *5142:A I *L 0
*I *5143:A I *L 0
*CAP
1 5140_1 0.00025752
2 5140_2 2.688e-05
3 5140_3 0.00063168
*RES
1 *5141:Q 5140_1 4.15333
2 5140_1 5140_2 0.746667
3 5140_2 *5142:A 0
4 5140_1 5140_3 8.21333
5 5140_3 *5143:A 0
*END
*D_NET *5144 0.00026976
*CONN
*I *5145:Y O *D _2781
*I *5146:B I *L 0
*I *5147:A I *L 0
*CAP
1 5144_1 7.344e-05
2 5144_2 5.76e-05
3 5144_3 0.00013872
*RES
1 *5145:Y 5144_1 0.84
2 5144_1 5144_2 0.373333
3 5144_2 *5146:B 0
4 5144_1 5144_3 1.96
5 5144_3 *5147:A 0
*END
*D_NET *5148 0.0008484
*CONN
*I *5149:Y O *D _2787
*I *5150:A I *L 0
*I *5151:B I *L 0
*CAP
1 5148_1 0.00076704
2 5148_2 2.04e-05
3 5148_3 6.096e-05
*RES
1 *5149:Y 5148_1 8.77333
2 5148_1 5148_2 0.233333
3 5148_2 *5150:A 0
4 5148_2 5148_3 1.02667
5 5148_3 *5151:B 0
*END
*D_NET *5152 0.00029232
*CONN
*I *5153:Q O *D _4025
*I *5154:A I *L 0
*I *5155:A I *L 0
*CAP
1 5152_1 0.00012672
2 5152_2 5.76e-05
3 5152_3 0.000108
*RES
1 *5153:Q 5152_1 1.68
2 5152_1 5152_2 0.373333
3 5152_2 *5154:A 0
4 5152_1 5152_3 0.7
5 5152_3 *5155:A 0
*END
*D_NET *5156 0.00026928
*CONN
*I *5157:Y O *D _2790
*I *5158:B I *L 0
*I *5159:A I *L 0
*CAP
1 5156_1 0.0002016
2 5156_2 6.768e-05
*RES
1 *5157:Y 5156_1 1.30667
2 5156_1 *5158:B 0
3 5156_1 5156_2 1.21333
4 5156_2 *5159:A 0
*END
*D_NET *5160 0.00038616
*CONN
*I *5161:Y O *D _2796
*I *5162:B I *L 0
*I *5163:A I *L 0
*CAP
1 5160_1 0.0002844
2 5160_2 2.04e-05
3 5160_3 8.136e-05
*RES
1 *5161:Y 5160_1 4.9
2 5160_1 5160_2 0.233333
3 5160_2 *5162:B 0
4 5160_2 5160_3 1.26
5 5160_3 *5163:A 0
*END
*D_NET *5164 0.00109872
*CONN
*I *5165:Q O *D _4026
*I *5166:A I *L 0
*I *5167:A I *L 0
*CAP
1 5164_1 3.36e-05
2 5164_2 0.00094272
3 5164_3 0.0001224
*RES
1 *5165:Q 5164_1 0.933333
2 5164_1 5164_2 14.1867
3 5164_2 *5166:A 0
4 5164_1 5164_3 1.4
5 5164_3 *5167:A 0
*END
*D_NET *5168 0.00017088
*CONN
*I *5169:Y O *D _2799
*I *5170:A I *L 0
*I *5171:B I *L 0
*CAP
1 5168_1 8.448e-05
2 5168_2 8.64e-05
*RES
1 *5169:Y 5168_1 1.12
2 5168_1 *5170:A 0
3 5168_1 5168_2 0.56
4 5168_2 *5171:B 0
*END
*D_NET *5172 0.00015504
*CONN
*I *5173:Y O *D _2805
*I *5174:A I *L 0
*I *5175:B I *L 0
*CAP
1 5172_1 6.72e-05
2 5172_2 0
3 5172_3 8.784e-05
*RES
1 *5173:Y 5172_1 1.86667
2 5172_1 5172_2 0
3 5172_2 *5174:A 0
4 5172_1 5172_3 1.77333
5 5172_3 *5175:B 0
*END
*D_NET *5176 0.00044328
*CONN
*I *5177:Q O *D _4027
*I *5178:A I *L 0
*I *5179:A I *L 0
*CAP
1 5176_1 4.08e-05
2 5176_2 0.00026688
3 5176_3 0.0001356
*RES
1 *5177:Q 5176_1 0.466667
2 5176_1 5176_2 4.85333
3 5176_2 *5178:A 0
4 5176_1 5176_3 2.1
5 5176_3 *5179:A 0
*END
*D_NET *5180 0.00028944
*CONN
*I *5181:Y O *D _2808
*I *5182:B I *L 0
*I *5183:A I *L 0
*CAP
1 5180_1 0.00022176
2 5180_2 0
3 5180_3 6.768e-05
*RES
1 *5181:Y 5180_1 1.86667
2 5180_1 5180_2 0
3 5180_2 *5182:B 0
4 5180_1 5180_3 1.21333
5 5180_3 *5183:A 0
*END
*D_NET *5184 0.00027072
*CONN
*I *5185:Q O *D _3963
*I *5186:A I *L 0
*I *5187:A I *L 0
*CAP
1 5184_1 0
2 5184_2 0.00012888
3 5184_3 0.00014184
*RES
1 *5185:Q 5184_1 0
2 5184_1 5184_2 1.91333
3 5184_2 *5186:A 0
4 5184_1 5184_3 2.94
5 5184_3 *5187:A 0
*END
*D_NET *5188 0.00051552
*CONN
*I *5189:Y O *D _2814
*I *5190:A I *L 0
*I *5191:B I *L 0
*CAP
1 5188_1 0.00037296
2 5188_2 6.096e-05
3 5188_3 8.16e-05
*RES
1 *5189:Y 5188_1 5.69333
2 5188_1 5188_2 1.02667
3 5188_2 *5190:A 0
4 5188_1 5188_3 0.933333
5 5188_3 *5191:B 0
*END
*D_NET *5192 0.00032328
*CONN
*I *5193:Q O *D _4028
*I *5194:A I *L 0
*I *5195:A I *L 0
*CAP
1 5192_1 0
2 5192_2 0.00014784
3 5192_3 0.00017544
*RES
1 *5193:Q 5192_1 0
2 5192_1 5192_2 4.10667
3 5192_2 *5194:A 0
4 5192_1 5192_3 2.00667
5 5192_3 *5195:A 0
*END
*D_NET *5196 0.00033216
*CONN
*I *5197:Y O *D _2817
*I *5198:B I *L 0
*I *5199:A I *L 0
*CAP
1 5196_1 0.00020328
2 5196_2 4.08e-05
3 5196_3 8.808e-05
*RES
1 *5197:Y 5196_1 3.31333
2 5196_1 5196_2 0.466667
3 5196_2 *5198:B 0
4 5196_1 5196_3 1.44667
5 5196_3 *5199:A 0
*END
*D_NET *5200 0.00038496
*CONN
*I *5201:Q O *D _3964
*I *5202:A I *L 0
*I *5203:A I *L 0
*CAP
1 5200_1 0.00018144
2 5200_2 6.12e-05
3 5200_3 0.00014232
*RES
1 *5201:Q 5200_1 5.04
2 5200_1 5200_2 0.7
3 5200_2 *5202:A 0
4 5200_1 5200_3 2.28667
5 5200_3 *5203:A 0
*END
*D_NET *5204 0.00046008
*CONN
*I *5205:Y O *D _2823
*I *5206:A I *L 0
*I *5207:B I *L 0
*CAP
1 5204_1 0.00030408
2 5204_2 8.16e-05
3 5204_3 7.44e-05
*RES
1 *5205:Y 5204_1 6.11333
2 5204_1 5204_2 0.933333
3 5204_2 *5206:A 0
4 5204_1 5204_3 1.4
5 5204_3 *5207:B 0
*END
*D_NET *5208 0.0001884
*CONN
*I *5209:Q O *D _4029
*I *5210:A I *L 0
*I *5211:A I *L 0
*CAP
1 5208_1 8.64e-05
2 5208_2 0.000102
*RES
1 *5209:Q 5208_1 0.56
2 5208_1 *5210:A 0
3 5208_1 5208_2 1.16667
4 5208_2 *5211:A 0
*END
*D_NET *5212 0.00017256
*CONN
*I *5213:Y O *D _2826
*I *5214:A I *L 0
*I *5215:B I *L 0
*CAP
1 5212_1 0.00011496
2 5212_2 5.76e-05
*RES
1 *5213:Y 5212_1 2.19333
2 5212_1 *5214:A 0
3 5212_1 5212_2 0.373333
4 5212_2 *5215:B 0
*END
*D_NET *5216 0.00024384
*CONN
*I *5217:Q O *D _3965
*I *5218:A I *L 0
*I *5219:A I *L 0
*CAP
1 5216_1 0.00016272
2 5216_2 0
3 5216_3 8.112e-05
*RES
1 *5217:Q 5216_1 2.52
2 5216_1 5216_2 0
3 5216_2 *5218:A 0
4 5216_1 5216_3 1.58667
5 5216_3 *5219:A 0
*END
*D_NET *5220 0.00174384
*CONN
*I *5221:Y O *D _2832
*I *5222:B I *L 0
*I *5223:A I *L 0
*CAP
1 5220_1 0.00159456
2 5220_2 5.424e-05
3 5220_3 9.504e-05
*RES
1 *5221:Y 5220_1 17.96
2 5220_1 5220_2 0.84
3 5220_2 *5222:B 0
4 5220_1 5220_3 1.30667
5 5220_3 *5223:A 0
*END
*D_NET *5224 0.00107064
*CONN
*I *5225:Q O *D _4030
*I *5226:A I *L 0
*I *5227:A I *L 0
*CAP
1 5224_1 0.00018624
2 5224_2 0.00067536
3 5224_3 0.00020904
*RES
1 *5225:Q 5224_1 1.57333
2 5224_1 5224_2 6.69333
3 5224_2 *5226:A 0
4 5224_1 5224_3 4.80667
5 5224_3 *5227:A 0
*END
*D_NET *5228 0.00052032
*CONN
*I *5229:Y O *D _2835
*I *5230:B I *L 0
*I *5231:A I *L 0
*CAP
1 5228_1 0.00043224
2 5228_2 2.04e-05
3 5228_3 6.768e-05
*RES
1 *5229:Y 5228_1 9.00667
2 5228_1 5228_2 0.233333
3 5228_2 *5230:B 0
4 5228_2 5228_3 1.21333
5 5228_3 *5231:A 0
*END
*D_NET *5232 0.00057312
*CONN
*I *5233:Q O *D _3966
*I *5234:A I *L 0
*I *5235:A I *L 0
*CAP
1 5232_1 0.00012168
2 5232_2 8.16e-05
3 5232_3 0.00036984
*RES
1 *5233:Q 5232_1 2.38
2 5232_1 5232_2 0.933333
3 5232_2 *5234:A 0
4 5232_1 5232_3 4.71333
5 5232_3 *5235:A 0
*END
*D_NET *5236 0.00016896
*CONN
*I *5237:Y O *D _2841
*I *5238:B I *L 0
*I *5239:A I *L 0
*CAP
1 5236_1 9.12e-05
2 5236_2 0
3 5236_3 7.776e-05
*RES
1 *5237:Y 5236_1 1.30667
2 5236_1 5236_2 0
3 5236_2 *5238:B 0
4 5236_1 5236_3 1.49333
5 5236_3 *5239:A 0
*END
*D_NET *5240 0.0004656
*CONN
*I *5241:Q O *D _4031
*I *5242:A I *L 0
*I *5243:A I *L 0
*CAP
1 5240_1 4.704e-05
2 5240_2 0.0001224
3 5240_3 0.00029616
*RES
1 *5241:Q 5240_1 1.30667
2 5240_1 5240_2 1.4
3 5240_2 *5242:A 0
4 5240_1 5240_3 7.56
5 5240_3 *5243:A 0
*END
*D_NET *5244 9.456e-05
*CONN
*I *5245:Y O *D _2844
*I *5246:B I *L 0
*I *5247:A I *L 0
*CAP
1 5244_1 2.688e-05
2 5244_2 0
3 5244_3 6.768e-05
*RES
1 *5245:Y 5244_1 0.746667
2 5244_1 5244_2 0
3 5244_2 *5246:B 0
4 5244_1 5244_3 1.21333
5 5244_3 *5247:A 0
*END
*D_NET *5248 0.00253392
*CONN
*I *5249:Q O *D _3967
*I *5250:A I *L 0
*I *5251:A I *L 0
*CAP
1 5248_1 0.00017424
2 5248_2 0.00235968
*RES
1 *5249:Q 5248_1 2.33333
2 5248_1 *5250:A 0
3 5248_1 5248_2 27.08
4 5248_2 *5251:A 0
*END
*D_NET *5252 0.0022368
*CONN
*I *5253:Y O *D _2850
*I *5254:A I *L 0
*I *5255:B I *L 0
*CAP
1 5252_1 0.0021864
2 5252_2 0
3 5252_3 5.04e-05
*RES
1 *5253:Y 5252_1 24.2
2 5252_1 5252_2 0
3 5252_2 *5254:A 0
4 5252_1 5252_3 1.4
5 5252_3 *5255:B 0
*END
*D_NET *5256 0.00050784
*CONN
*I *5257:Q O *D _4032
*I *5258:A I *L 0
*I *5259:A I *L 0
*CAP
1 5256_1 0.00011424
2 5256_2 0.0001224
3 5256_3 0.0002712
*RES
1 *5257:Q 5256_1 3.17333
2 5256_1 5256_2 1.4
3 5256_2 *5258:A 0
4 5256_1 5256_3 4.2
5 5256_3 *5259:A 0
*END
*D_NET *5260 0.00028104
*CONN
*I *5261:Y O *D _2853
*I *5262:A I *L 0
*I *5263:B I *L 0
*CAP
1 5260_1 0.00022344
2 5260_2 5.76e-05
*RES
1 *5261:Y 5260_1 3.87333
2 5260_1 *5262:A 0
3 5260_1 5260_2 0.373333
4 5260_2 *5263:B 0
*END
*D_NET *5264 0.00037008
*CONN
*I *5265:Q O *D _3968
*I *5266:A I *L 0
*I *5267:A I *L 0
*CAP
1 5264_1 0.00024048
2 5264_2 0.0001296
*RES
1 *5265:Q 5264_1 3.45333
2 5264_1 *5266:A 0
3 5264_1 5264_2 0.84
4 5264_2 *5267:A 0
*END
*D_NET *5268 0.00013872
*CONN
*I *5269:Y O *D _2859
*I *5270:A I *L 0
*I *5271:B I *L 0
*CAP
1 5268_1 7.776e-05
2 5268_2 4.08e-05
3 5268_3 2.016e-05
*RES
1 *5269:Y 5268_1 0.933333
2 5268_1 5268_2 0.466667
3 5268_2 *5270:A 0
4 5268_1 5268_3 0.56
5 5268_3 *5271:B 0
*END
*D_NET *5272 0.00046224
*CONN
*I *5273:Q O *D _4033
*I *5274:A I *L 0
*I *5275:A I *L 0
*CAP
1 5272_1 0.0001728
2 5272_2 5.76e-05
3 5272_3 0.00023184
*RES
1 *5273:Q 5272_1 1.12
2 5272_1 5272_2 0.373333
3 5272_2 *5274:A 0
4 5272_1 5272_3 2.47333
5 5272_3 *5275:A 0
*END
*D_NET *5276 0.00048936
*CONN
*I *5277:Y O *D _2862
*I *5278:B I *L 0
*I *5279:A I *L 0
*CAP
1 5276_1 0.00040128
2 5276_2 2.04e-05
3 5276_3 6.768e-05
*RES
1 *5277:Y 5276_1 4.08
2 5276_1 5276_2 0.233333
3 5276_2 *5278:B 0
4 5276_2 5276_3 1.21333
5 5276_3 *5279:A 0
*END
*D_NET *5280 0.00060504
*CONN
*I *5281:Q O *D _3969
*I *5282:A I *L 0
*I *5283:A I *L 0
*CAP
1 5280_1 0.000144
2 5280_2 0.0001224
3 5280_3 0.00033864
*RES
1 *5281:Q 5280_1 0.933333
2 5280_1 5280_2 1.4
3 5280_2 *5282:A 0
4 5280_1 5280_3 3.87333
5 5280_3 *5283:A 0
*END
*D_NET *5284 0.00026496
*CONN
*I *5285:Y O *D _2868
*I *5286:B I *L 0
*I *5287:A I *L 0
*CAP
1 5284_1 0.0001632
2 5284_2 2.04e-05
3 5284_3 8.136e-05
*RES
1 *5285:Y 5284_1 1.86667
2 5284_1 5284_2 0.233333
3 5284_2 *5286:B 0
4 5284_2 5284_3 1.26
5 5284_3 *5287:A 0
*END
*D_NET *5288 0.00092328
*CONN
*I *5289:Q O *D _4034
*I *5290:A I *L 0
*I *5291:A I *L 0
*CAP
1 5288_1 0.0001728
2 5288_2 5.76e-05
3 5288_3 0.00069288
*RES
1 *5289:Q 5288_1 1.12
2 5288_1 5288_2 0.373333
3 5288_2 *5290:A 0
4 5288_1 5288_3 7.74667
5 5288_3 *5291:A 0
*END
*D_NET *5292 0.00023064
*CONN
*I *5293:Y O *D _2871
*I *5294:B I *L 0
*I *5295:A I *L 0
*CAP
1 5292_1 2.016e-05
2 5292_2 8.16e-05
3 5292_3 0.00012888
*RES
1 *5293:Y 5292_1 0.56
2 5292_1 5292_2 0.933333
3 5292_2 *5294:B 0
4 5292_1 5292_3 1.91333
5 5292_3 *5295:A 0
*END
*D_NET *5296 0.00056496
*CONN
*I *5297:Q O *D _3970
*I *5298:A I *L 0
*I *5299:A I *L 0
*CAP
1 5296_1 0.00010656
2 5296_2 4.704e-05
3 5296_3 0.00041136
*RES
1 *5297:Q 5296_1 1.16
2 5296_1 5296_2 1.30667
3 5296_2 *5298:A 0
4 5296_1 5296_3 4.13333
5 5296_3 *5299:A 0
*END
*D_NET *5300 0.00011472
*CONN
*I *5301:Y O *D _2877
*I *5302:B I *L 0
*I *5303:A I *L 0
*CAP
1 5300_1 5.376e-05
2 5300_2 0
3 5300_3 6.096e-05
*RES
1 *5301:Y 5300_1 1.49333
2 5300_1 5300_2 0
3 5300_2 *5302:B 0
4 5300_1 5300_3 1.02667
5 5300_3 *5303:A 0
*END
*D_NET *5304 0.00037152
*CONN
*I *5305:Q O *D _4035
*I *5306:A I *L 0
*I *5307:A I *L 0
*CAP
1 5304_1 7.392e-05
2 5304_2 6.12e-05
3 5304_3 0.0002364
*RES
1 *5305:Q 5304_1 2.05333
2 5304_1 5304_2 0.7
3 5304_2 *5306:A 0
4 5304_1 5304_3 4.9
5 5304_3 *5307:A 0
*END
*D_NET *5308 0.00012864
*CONN
*I *5309:Y O *D _2880
*I *5310:B I *L 0
*I *5311:A I *L 0
*CAP
1 5308_1 6.096e-05
2 5308_2 0
3 5308_3 6.768e-05
*RES
1 *5309:Y 5308_1 1.02667
2 5308_1 5308_2 0
3 5308_2 *5310:B 0
4 5308_1 5308_3 1.21333
5 5308_3 *5311:A 0
*END
*D_NET *5312 0.00043344
*CONN
*I *5313:Q O *D _3971
*I *5314:A I *L 0
*I *5315:A I *L 0
*CAP
1 5312_1 0.00033864
2 5312_2 4.08e-05
3 5312_3 5.4e-05
*RES
1 *5313:Q 5312_1 3.87333
2 5312_1 5312_2 0.466667
3 5312_2 *5314:A 0
4 5312_1 5312_3 1.16667
5 5312_3 *5315:A 0
*END
*D_NET *5316 0.00181272
*CONN
*I *5317:Y O *D _2886
*I *5318:A I *L 0
*I *5319:B I *L 0
*CAP
1 5316_1 0.00173136
2 5316_2 0
3 5316_3 8.136e-05
*RES
1 *5317:Y 5316_1 27.5333
2 5316_1 5316_2 0
3 5316_2 *5318:A 0
4 5316_1 5316_3 1.26
5 5316_3 *5319:B 0
*END
*D_NET *5320 0.00020352
*CONN
*I *5321:Q O *D _4036
*I *5322:A I *L 0
*I *5323:A I *L 0
*CAP
1 5320_1 0.000102
2 5320_2 2.04e-05
3 5320_3 8.112e-05
*RES
1 *5321:Q 5320_1 1.16667
2 5320_1 5320_2 0.233333
3 5320_2 *5322:A 0
4 5320_2 5320_3 1.58667
5 5320_3 *5323:A 0
*END
*D_NET *5324 0.00020544
*CONN
*I *5325:Y O *D _2889
*I *5326:B I *L 0
*I *5327:A I *L 0
*CAP
1 5324_1 7.344e-05
2 5324_2 5.76e-05
3 5324_3 7.44e-05
*RES
1 *5325:Y 5324_1 0.84
2 5324_1 5324_2 0.373333
3 5324_2 *5326:B 0
4 5324_1 5324_3 1.4
5 5324_3 *5327:A 0
*END
*D_NET *5328 0.00021024
*CONN
*I *5329:Q O *D _3972
*I *5330:A I *L 0
*I *5331:A I *L 0
*CAP
1 5328_1 0.00012216
2 5328_2 6.768e-05
3 5328_3 2.04e-05
*RES
1 *5329:Q 5328_1 1.72667
2 5328_1 5328_2 1.21333
3 5328_2 *5330:A 0
4 5328_1 5328_3 0.233333
5 5328_3 *5331:A 0
*END
*D_NET *5332 0.00039024
*CONN
*I *5333:Y O *D _2895
*I *5334:B I *L 0
*I *5335:A I *L 0
*CAP
1 5332_1 0.0002616
2 5332_2 2.04e-05
3 5332_3 0.00010824
*RES
1 *5333:Y 5332_1 2.70667
2 5332_1 5332_2 0.233333
3 5332_2 *5334:B 0
4 5332_2 5332_3 2.00667
5 5332_3 *5335:A 0
*END
*D_NET *5336 0.0003792
*CONN
*I *5337:Q O *D _4037
*I *5338:A I *L 0
*I *5339:A I *L 0
*CAP
1 5336_1 0.00021624
2 5336_2 2.016e-05
3 5336_3 0.0001428
*RES
1 *5337:Q 5336_1 2.47333
2 5336_1 5336_2 0.56
3 5336_2 *5338:A 0
4 5336_1 5336_3 1.63333
5 5336_3 *5339:A 0
*END
*D_NET *5340 0.0004056
*CONN
*I *5341:Y O *D _2898
*I *5342:B I *L 0
*I *5343:A I *L 0
*CAP
1 5340_1 0.00031104
2 5340_2 0
3 5340_3 9.456e-05
*RES
1 *5341:Y 5340_1 5.97333
2 5340_1 5340_2 0
3 5340_2 *5342:B 0
4 5340_1 5340_3 1.96
5 5340_3 *5343:A 0
*END
*D_NET *5344 0.0006276
*CONN
*I *5345:Q O *D _3973
*I *5346:A I *L 0
*I *5347:A I *L 0
*CAP
1 5344_1 0.00012168
2 5344_2 0.000102
3 5344_3 0.00040392
*RES
1 *5345:Q 5344_1 2.38
2 5344_1 5344_2 1.16667
3 5344_2 *5346:A 0
4 5344_1 5344_3 10.22
5 5344_3 *5347:A 0
*END
*D_NET *5348 0.0005208
*CONN
*I *5349:Y O *D _2904
*I *5350:A I *L 0
*I *5351:B I *L 0
*CAP
1 5348_1 0.0003648
2 5348_2 8.16e-05
3 5348_3 7.44e-05
*RES
1 *5349:Y 5348_1 7.46667
2 5348_1 5348_2 0.933333
3 5348_2 *5350:A 0
4 5348_1 5348_3 1.4
5 5348_3 *5351:B 0
*END
*D_NET *5352 0.00024384
*CONN
*I *5353:Q O *D _4038
*I *5354:A I *L 0
*I *5355:A I *L 0
*CAP
1 5352_1 0.00011424
2 5352_2 0.0001296
*RES
1 *5353:Q 5352_1 3.17333
2 5352_1 *5354:A 0
3 5352_1 5352_2 0.84
4 5352_2 *5355:A 0
*END
*D_NET *5356 0.00055872
*CONN
*I *5357:Y O *D _2907
*I *5358:B I *L 0
*I *5359:A I *L 0
*CAP
1 5356_1 0.00042912
2 5356_2 0.0001296
*RES
1 *5357:Y 5356_1 8.58667
2 5356_1 *5358:B 0
3 5356_1 5356_2 0.84
4 5356_2 *5359:A 0
*END
*D_NET *5360 0.00043392
*CONN
*I *5361:Q O *D _3974
*I *5362:A I *L 0
*I *5363:A I *L 0
*CAP
1 5360_1 6.048e-05
2 5360_2 0.0001224
3 5360_3 0.00025104
*RES
1 *5361:Q 5360_1 1.68
2 5360_1 5360_2 1.4
3 5360_2 *5362:A 0
4 5360_1 5360_3 3.64
5 5360_3 *5363:A 0
*END
*D_NET *5364 0.00039888
*CONN
*I *5365:Y O *D _2913
*I *5366:B I *L 0
*I *5367:A I *L 0
*CAP
1 5364_1 0.00023592
2 5364_2 8.16e-05
3 5364_3 8.136e-05
*RES
1 *5365:Y 5364_1 5.55333
2 5364_1 5364_2 0.933333
3 5364_2 *5366:B 0
4 5364_1 5364_3 1.26
5 5364_3 *5367:A 0
*END
*D_NET *5368 0.00061608
*CONN
*I *5369:Q O *D _4039
*I *5370:A I *L 0
*I *5371:A I *L 0
*CAP
1 5368_1 2.04e-05
2 5368_2 0.00030504
3 5368_3 0.00029064
*RES
1 *5369:Q 5368_1 0.233333
2 5368_1 5368_2 4.80667
3 5368_2 *5370:A 0
4 5368_1 5368_3 5.74
5 5368_3 *5371:A 0
*END
*D_NET *5372 0.00049608
*CONN
*I *5373:Y O *D _2916
*I *5374:A I *L 0
*I *5375:B I *L 0
*CAP
1 5372_1 0.00036048
2 5372_2 5.424e-05
3 5372_3 8.136e-05
*RES
1 *5373:Y 5372_1 3.88
2 5372_1 5372_2 0.84
3 5372_2 *5374:A 0
4 5372_1 5372_3 1.26
5 5372_3 *5375:B 0
*END
*D_NET *5376 0.00023688
*CONN
*I *5377:Q O *D _3975
*I *5378:A I *L 0
*I *5379:A I *L 0
*CAP
1 5376_1 6.048e-05
2 5376_2 0
3 5376_3 0.0001764
*RES
1 *5377:Q 5376_1 1.68
2 5376_1 5376_2 0
3 5376_2 *5378:A 0
4 5376_1 5376_3 2.56667
5 5376_3 *5379:A 0
*END
*D_NET *5380 0.00174384
*CONN
*I *5381:Y O *D _2922
*I *5382:B I *L 0
*I *5383:A I *L 0
*CAP
1 5380_1 0.00153456
2 5380_2 7.464e-05
3 5380_3 0.00013464
*RES
1 *5381:Y 5380_1 17.96
2 5380_1 5380_2 1.07333
3 5380_2 *5382:B 0
4 5380_1 5380_3 1.54
5 5380_3 *5383:A 0
*END
*D_NET *5384 0.00046344
*CONN
*I *5385:Q O *D _4040
*I *5386:A I *L 0
*I *5387:A I *L 0
*CAP
1 5384_1 0.00013512
2 5384_2 0.000102
3 5384_3 0.00022632
*RES
1 *5385:Q 5384_1 2.75333
2 5384_1 5384_2 1.16667
3 5384_2 *5386:A 0
4 5384_1 5384_3 4.06
5 5384_3 *5387:A 0
*END
*D_NET *5388 0.0003912
*CONN
*I *5389:Y O *D _2925
*I *5390:B I *L 0
*I *5391:A I *L 0
*CAP
1 5388_1 0.00024384
2 5388_2 4.08e-05
3 5388_3 0.00010656
*RES
1 *5389:Y 5388_1 4.10667
2 5388_1 5388_2 0.466667
3 5388_2 *5390:B 0
4 5388_1 5388_3 0.933333
5 5388_3 *5391:A 0
*END
*D_NET *5392 0.00050208
*CONN
*I *5393:Q O *D _3976
*I *5394:A I *L 0
*I *5395:A I *L 0
*CAP
1 5392_1 8.64e-05
2 5392_2 0.00041568
*RES
1 *5393:Q 5392_1 0.56
2 5392_1 *5394:A 0
3 5392_1 5392_2 7.65333
4 5392_2 *5395:A 0
*END
*D_NET *5396 0.00067824
*CONN
*I *5397:Y O *D _2931
*I *5398:A I *L 0
*I *5399:B I *L 0
*CAP
1 5396_1 0.00044064
2 5396_2 8.16e-05
3 5396_3 0.000156
*RES
1 *5397:Y 5396_1 5.44
2 5396_1 5396_2 0.933333
3 5396_2 *5398:A 0
4 5396_1 5396_3 2.33333
5 5396_3 *5399:B 0
*END
*D_NET *5400 0.0001632
*CONN
*I *5401:Q O *D _4041
*I *5402:A I *L 0
*I *5403:A I *L 0
*CAP
1 5400_1 3.36e-05
2 5400_2 0.0001296
*RES
1 *5401:Q 5400_1 0.933333
2 5400_1 *5402:A 0
3 5400_1 5400_2 0.84
4 5400_2 *5403:A 0
*END
*D_NET *5404 0.00023616
*CONN
*I *5405:Y O *D _2934
*I *5406:B I *L 0
*I *5407:A I *L 0
*CAP
1 5404_1 0.00010656
2 5404_2 0.0001296
*RES
1 *5405:Y 5404_1 1.12
2 5404_1 *5406:B 0
3 5404_1 5404_2 0.84
4 5404_2 *5407:A 0
*END
*D_NET *5408 0.00073632
*CONN
*I *5409:Q O *D _3977
*I *5410:A I *L 0
*I *5411:A I *L 0
*CAP
1 5408_1 0.00032928
2 5408_2 0.00040704
*RES
1 *5409:Q 5408_1 4.10667
2 5408_1 *5410:A 0
3 5408_1 5408_2 5.97333
4 5408_2 *5411:A 0
*END
*D_NET *5412 0.00092568
*CONN
*I *5413:Y O *D _2940
*I *5414:A I *L 0
*I *5415:B I *L 0
*CAP
1 5412_1 0.00081048
2 5412_2 2.04e-05
3 5412_3 9.48e-05
*RES
1 *5413:Y 5412_1 16.8467
2 5412_1 5412_2 0.233333
3 5412_2 *5414:A 0
4 5412_2 5412_3 1.63333
5 5412_3 *5415:B 0
*END
*D_NET *5416 0.00047136
*CONN
*I *5417:Q O *D _4042
*I *5418:A I *L 0
*I *5419:A I *L 0
*CAP
1 5416_1 0.00016944
2 5416_2 0.00030192
*RES
1 *5417:Q 5416_1 2.70667
2 5416_1 *5418:A 0
3 5416_1 5416_2 3.82667
4 5416_2 *5419:A 0
*END
*D_NET *5420 0.00011808
*CONN
*I *5421:Y O *D _2943
*I *5422:A I *L 0
*I *5423:B I *L 0
*CAP
1 5420_1 6.048e-05
2 5420_2 5.76e-05
*RES
1 *5421:Y 5420_1 1.68
2 5420_1 *5422:A 0
3 5420_1 5420_2 0.373333
4 5420_2 *5423:B 0
*END
*D_NET *5424 0.00019008
*CONN
*I *5425:Q O *D _3978
*I *5426:A I *L 0
*I *5427:A I *L 0
*CAP
1 5424_1 6.048e-05
2 5424_2 0.0001296
*RES
1 *5425:Q 5424_1 1.68
2 5424_1 *5426:A 0
3 5424_1 5424_2 0.84
4 5424_2 *5427:A 0
*END
*D_NET *5428 0.0004152
*CONN
*I *5429:Y O *D _2949
*I *5430:A I *L 0
*I *5431:B I *L 0
*CAP
1 5428_1 0.000246
2 5428_2 2.04e-05
3 5428_3 0.0001488
*RES
1 *5429:Y 5428_1 2.1
2 5428_1 5428_2 0.233333
3 5428_2 *5430:A 0
4 5428_2 5428_3 2.8
5 5428_3 *5431:B 0
*END
*D_NET *5432 0.00038832
*CONN
*I *5433:Q O *D _4043
*I *5434:A I *L 0
*I *5435:A I *L 0
*CAP
1 5432_1 8.64e-05
2 5432_2 0.00030192
*RES
1 *5433:Q 5432_1 0.56
2 5432_1 *5434:A 0
3 5432_1 5432_2 3.82667
4 5432_2 *5435:A 0
*END
*D_NET *5436 0.00036432
*CONN
*I *5437:Y O *D _2952
*I *5438:A I *L 0
*I *5439:B I *L 0
*CAP
1 5436_1 0.00026304
2 5436_2 4.08e-05
3 5436_3 6.048e-05
*RES
1 *5437:Y 5436_1 5.97333
2 5436_1 5436_2 0.466667
3 5436_2 *5438:A 0
4 5436_1 5436_3 1.68
5 5436_3 *5439:B 0
*END
*D_NET *5440 0.00036624
*CONN
*I *5441:Q O *D _3979
*I *5442:A I *L 0
*I *5443:A I *L 0
*CAP
1 5440_1 0.00023664
2 5440_2 0.0001296
*RES
1 *5441:Q 5440_1 4.57333
2 5440_1 *5442:A 0
3 5440_1 5440_2 0.84
4 5440_2 *5443:A 0
*END
*D_NET *5444 0.0001488
*CONN
*I *5445:Y O *D _2958
*I *5446:B I *L 0
*I *5447:A I *L 0
*CAP
1 5444_1 9.12e-05
2 5444_2 5.76e-05
*RES
1 *5445:Y 5444_1 1.30667
2 5444_1 *5446:B 0
3 5444_1 5444_2 0.373333
4 5444_2 *5447:A 0
*END
*D_NET *5448 0.00031752
*CONN
*I *5449:Q O *D _4044
*I *5450:A I *L 0
*I *5451:A I *L 0
*CAP
1 5448_1 0.00021624
2 5448_2 4.08e-05
3 5448_3 6.048e-05
*RES
1 *5449:Q 5448_1 2.47333
2 5448_1 5448_2 0.466667
3 5448_2 *5450:A 0
4 5448_1 5448_3 1.68
5 5448_3 *5451:A 0
*END
*D_NET *5452 0.00071664
*CONN
*I *5453:Y O *D _2961
*I *5454:A I *L 0
*I *5455:B I *L 0
*CAP
1 5452_1 0.00065904
2 5452_2 5.76e-05
*RES
1 *5453:Y 5452_1 8.30667
2 5452_1 *5454:A 0
3 5452_1 5452_2 0.373333
4 5452_2 *5455:B 0
*END
*D_NET *5456 0.0003888
*CONN
*I *5457:Q O *D _3980
*I *5458:A I *L 0
*I *5459:A I *L 0
*CAP
1 5456_1 0
2 5456_2 0.00020952
3 5456_3 0.00017928
*RES
1 *5457:Q 5456_1 0
2 5456_1 5456_2 4.15333
3 5456_2 *5458:A 0
4 5456_1 5456_3 3.31333
5 5456_3 *5459:A 0
*END
*D_NET *5460 0.00015528
*CONN
*I *5461:Y O *D _2967
*I *5462:A I *L 0
*I *5463:B I *L 0
*CAP
1 5460_1 6.048e-05
2 5460_2 0
3 5460_3 9.48e-05
*RES
1 *5461:Y 5460_1 1.68
2 5460_1 5460_2 0
3 5460_2 *5462:A 0
4 5460_1 5460_3 1.63333
5 5460_3 *5463:B 0
*END
*D_NET *5464 0.00110088
*CONN
*I *5465:Q O *D _4045
*I *5466:A I *L 0
*I *5467:A I *L 0
*CAP
1 5464_1 0.00044976
2 5464_2 3.264e-05
3 5464_3 0.00061848
*RES
1 *5465:Q 5464_1 5.49333
2 5464_1 5464_2 0.373333
3 5464_2 *5466:A 0
4 5464_1 5464_3 7.51333
5 5464_3 *5467:A 0
*END
*D_NET *5468 0.0003012
*CONN
*I *5469:Y O *D _2970
*I *5470:A I *L 0
*I *5471:B I *L 0
*CAP
1 5468_1 0.0002436
2 5468_2 5.76e-05
*RES
1 *5469:Y 5468_1 4.43333
2 5468_1 *5470:A 0
3 5468_1 5468_2 0.373333
4 5468_2 *5471:B 0
*END
*D_NET *5472 0.00028296
*CONN
*I *5473:Q O *D _3981
*I *5474:A I *L 0
*I *5475:A I *L 0
*CAP
1 5472_1 0.00019656
2 5472_2 8.64e-05
*RES
1 *5473:Q 5472_1 3.12667
2 5472_1 *5474:A 0
3 5472_1 5472_2 0.56
4 5472_2 *5475:A 0
*END
*D_NET *5476 0.00013488
*CONN
*I *5477:Y O *D _2976
*I *5478:B I *L 0
*I *5479:A I *L 0
*CAP
1 5476_1 6.72e-05
2 5476_2 0
3 5476_3 6.768e-05
*RES
1 *5477:Y 5476_1 1.86667
2 5476_1 5476_2 0
3 5476_2 *5478:B 0
4 5476_1 5476_3 1.21333
5 5476_3 *5479:A 0
*END
*D_NET *5480 0.00029184
*CONN
*I *5481:Q O *D _4046
*I *5482:A I *L 0
*I *5483:A I *L 0
*CAP
1 5480_1 0.000204
2 5480_2 6.096e-05
3 5480_3 2.688e-05
*RES
1 *5481:Q 5480_1 2.33333
2 5480_1 5480_2 1.02667
3 5480_2 *5482:A 0
4 5480_1 5480_3 0.746667
5 5480_3 *5483:A 0
*END
*D_NET *5484 0.00020208
*CONN
*I *5485:Y O *D _2979
*I *5486:B I *L 0
*I *5487:A I *L 0
*CAP
1 5484_1 0.00011424
2 5484_2 0
3 5484_3 8.784e-05
*RES
1 *5485:Y 5484_1 3.17333
2 5484_1 5484_2 0
3 5484_2 *5486:B 0
4 5484_1 5484_3 1.77333
5 5484_3 *5487:A 0
*END
*D_NET *5488 0.00051336
*CONN
*I *5489:Q O *D _3982
*I *5490:A I *L 0
*I *5491:A I *L 0
*CAP
1 5488_1 0.0001836
2 5488_2 4.032e-05
3 5488_3 0.00028944
*RES
1 *5489:Q 5488_1 2.1
2 5488_1 5488_2 1.12
3 5488_2 *5490:A 0
4 5488_1 5488_3 3.17333
5 5488_3 *5491:A 0
*END
*D_NET *5492 0.00012168
*CONN
*I *5493:Y O *D _2985
*I *5494:A I *L 0
*I *5495:B I *L 0
*CAP
1 5492_1 2.688e-05
2 5492_2 0
3 5492_3 9.48e-05
*RES
1 *5493:Y 5492_1 0.746667
2 5492_1 5492_2 0
3 5492_2 *5494:A 0
4 5492_1 5492_3 1.63333
5 5492_3 *5495:B 0
*END
*D_NET *5496 0.00059376
*CONN
*I *5497:Q O *D _4047
*I *5498:A I *L 0
*I *5499:A I *L 0
*CAP
1 5496_1 0.00023664
2 5496_2 7.44e-05
3 5496_3 0.00028272
*RES
1 *5497:Q 5496_1 2.70667
2 5496_1 5496_2 1.4
3 5496_2 *5498:A 0
4 5496_1 5496_3 5.32
5 5496_3 *5499:A 0
*END
*D_NET *5500 0.00011808
*CONN
*I *5501:Y O *D _2988
*I *5502:A I *L 0
*I *5503:B I *L 0
*CAP
1 5500_1 6.048e-05
2 5500_2 5.76e-05
*RES
1 *5501:Y 5500_1 1.68
2 5500_1 *5502:A 0
3 5500_1 5500_2 0.373333
4 5500_2 *5503:B 0
*END
*D_NET *5504 0.0007308
*CONN
*I *5505:Q O *D _3983
*I *5506:A I *L 0
*I *5507:A I *L 0
*CAP
1 5504_1 5.76e-05
2 5504_2 0.00039984
3 5504_3 0.00027336
*RES
1 *5505:Q 5504_1 0.373333
2 5504_1 5504_2 4.57333
3 5504_2 *5506:A 0
4 5504_1 5504_3 3.12667
5 5504_3 *5507:A 0
*END
*D_NET *5508 0.00047472
*CONN
*I *5509:Y O *D _2994
*I *5510:A I *L 0
*I *5511:B I *L 0
*CAP
1 5508_1 0.00039336
2 5508_2 2.016e-05
3 5508_3 6.12e-05
*RES
1 *5509:Y 5508_1 5.92667
2 5508_1 5508_2 0.56
3 5508_2 *5510:A 0
4 5508_1 5508_3 0.7
5 5508_3 *5511:B 0
*END
*D_NET *5512 0.00022104
*CONN
*I *5513:Q O *D _4048
*I *5514:A I *L 0
*I *5515:A I *L 0
*CAP
1 5512_1 8.64e-05
2 5512_2 0.00013464
*RES
1 *5513:Q 5512_1 0.56
2 5512_1 *5514:A 0
3 5512_1 5512_2 1.54
4 5512_2 *5515:A 0
*END
*D_NET *5516 0.00012864
*CONN
*I *5517:Y O *D _2997
*I *5518:B I *L 0
*I *5519:A I *L 0
*CAP
1 5516_1 6.096e-05
2 5516_2 0
3 5516_3 6.768e-05
*RES
1 *5517:Y 5516_1 1.02667
2 5516_1 5516_2 0
3 5516_2 *5518:B 0
4 5516_1 5516_3 1.21333
5 5516_3 *5519:A 0
*END
*D_NET *5520 0.00033168
*CONN
*I *5521:Q O *D _3984
*I *5522:A I *L 0
*I *5523:A I *L 0
*CAP
1 5520_1 0.00028464
2 5520_2 4.704e-05
*RES
1 *5521:Q 5520_1 4.57333
2 5520_1 *5522:A 0
3 5520_1 5520_2 1.30667
4 5520_2 *5523:A 0
*END
*D_NET *5524 0.0002676
*CONN
*I *5525:Y O *D _3003
*I *5526:A I *L 0
*I *5527:B I *L 0
*CAP
1 5524_1 0.0001728
2 5524_2 9.48e-05
*RES
1 *5525:Y 5524_1 1.12
2 5524_1 *5526:A 0
3 5524_1 5524_2 1.63333
4 5524_2 *5527:B 0
*END
*D_NET *5528 0.00039168
*CONN
*I *5529:Q O *D _4049
*I *5530:A I *L 0
*I *5531:A I *L 0
*CAP
1 5528_1 0.00022032
2 5528_2 2.016e-05
3 5528_3 0.0001512
*RES
1 *5529:Q 5528_1 3.45333
2 5528_1 5528_2 0.56
3 5528_2 *5530:A 0
4 5528_1 5528_3 1.86667
5 5528_3 *5531:A 0
*END
*D_NET *5532 0.00023328
*CONN
*I *5533:Y O *D _3006
*I *5534:A I *L 0
*I *5535:B I *L 0
*CAP
1 5532_1 0.00017568
2 5532_2 5.76e-05
*RES
1 *5533:Y 5532_1 2.42667
2 5532_1 *5534:A 0
3 5532_1 5532_2 0.373333
4 5532_2 *5535:B 0
*END
*D_NET *5536 0.00067416
*CONN
*I *5537:Q O *D _3985
*I *5538:A I *L 0
*I *5539:A I *L 0
*CAP
1 5536_1 8.64e-05
2 5536_2 0.00058776
*RES
1 *5537:Q 5536_1 0.56
2 5536_1 *5538:A 0
3 5536_1 5536_2 7.12667
4 5536_2 *5539:A 0
*END
*D_NET *5540 0.00076296
*CONN
*I *5541:Y O *D _3012
*I *5542:A I *L 0
*I *5543:B I *L 0
*CAP
1 5540_1 0.00066144
2 5540_2 2.016e-05
3 5540_3 8.136e-05
*RES
1 *5541:Y 5540_1 7.97333
2 5540_1 5540_2 0.56
3 5540_2 *5542:A 0
4 5540_1 5540_3 1.26
5 5540_3 *5543:B 0
*END
*D_NET *5544 0.00072336
*CONN
*I *5545:Q O *D _4050
*I *5546:A I *L 0
*I *5547:A I *L 0
*CAP
1 5544_1 0.00016944
2 5544_2 4.08e-05
3 5544_3 0.00051312
*RES
1 *5545:Q 5544_1 2.70667
2 5544_1 5544_2 0.466667
3 5544_2 *5546:A 0
4 5544_1 5544_3 11.2533
5 5544_3 *5547:A 0
*END
*D_NET *5548 0.00034008
*CONN
*I *5549:Y O *D _3015
*I *5550:B I *L 0
*I *5551:A I *L 0
*CAP
1 5548_1 0.00021048
2 5548_2 0.0001296
*RES
1 *5549:Y 5548_1 2.84667
2 5548_1 *5550:B 0
3 5548_1 5548_2 0.84
4 5548_2 *5551:A 0
*END
*D_NET *5552 0.00057
*CONN
*I *5553:Q O *D _3986
*I *5554:A I *L 0
*I *5555:A I *L 0
*CAP
1 5552_1 8.112e-05
2 5552_2 0.00023184
3 5552_3 0.00025704
*RES
1 *5553:Q 5552_1 1.58667
2 5552_1 5552_2 3.04
3 5552_2 *5554:A 0
4 5552_1 5552_3 4.80667
5 5552_3 *5555:A 0
*END
*D_NET *5556 0.00036336
*CONN
*I *5557:Y O *D _3021
*I *5558:B I *L 0
*I *5559:A I *L 0
*CAP
1 5556_1 0.0002616
2 5556_2 2.04e-05
3 5556_3 8.136e-05
*RES
1 *5557:Y 5556_1 2.70667
2 5556_1 5556_2 0.233333
3 5556_2 *5558:B 0
4 5556_2 5556_3 1.26
5 5556_3 *5559:A 0
*END
*D_NET *5560 0.00063432
*CONN
*I *5561:Q O *D _4051
*I *5562:A I *L 0
*I *5563:A I *L 0
*CAP
1 5560_1 5.76e-05
2 5560_2 0.00042096
3 5560_3 0.00015576
*RES
1 *5561:Q 5560_1 0.373333
2 5560_1 5560_2 5.69333
3 5560_2 *5562:A 0
4 5560_1 5560_3 2.66
5 5560_3 *5563:A 0
*END
*D_NET *5564 0.00020544
*CONN
*I *5565:Y O *D _3024
*I *5566:B I *L 0
*I *5567:A I *L 0
*CAP
1 5564_1 7.344e-05
2 5564_2 5.76e-05
3 5564_3 7.44e-05
*RES
1 *5565:Y 5564_1 0.84
2 5564_1 5564_2 0.373333
3 5564_2 *5566:B 0
4 5564_1 5564_3 1.4
5 5564_3 *5567:A 0
*END
*D_NET *5568 0.0002304
*CONN
*I *5569:Q O *D _3987
*I *5570:A I *L 0
*I *5571:A I *L 0
*CAP
1 5568_1 0
2 5568_2 0.00012888
3 5568_3 0.00010152
*RES
1 *5569:Q 5568_1 0
2 5568_1 5568_2 1.91333
3 5568_2 *5570:A 0
4 5568_1 5568_3 1.82
5 5568_3 *5571:A 0
*END
*D_NET *5572 0.00031872
*CONN
*I *5573:Y O *D _3030
*I *5574:A I *L 0
*I *5575:B I *L 0
*CAP
1 5572_1 0.00023736
2 5572_2 6.12e-05
3 5572_3 2.016e-05
*RES
1 *5573:Y 5572_1 3.59333
2 5572_1 5572_2 0.7
3 5572_2 *5574:A 0
4 5572_1 5572_3 0.56
5 5572_3 *5575:B 0
*END
*D_NET *5576 0.00051984
*CONN
*I *5577:Q O *D _4052
*I *5578:A I *L 0
*I *5579:A I *L 0
*CAP
1 5576_1 8.64e-05
2 5576_2 0.00043344
*RES
1 *5577:Q 5576_1 0.56
2 5576_1 *5578:A 0
3 5576_1 5576_2 8.30667
4 5576_2 *5579:A 0
*END
*D_NET *5580 0.00033768
*CONN
*I *5581:Y O *D _3033
*I *5582:B I *L 0
*I *5583:A I *L 0
*CAP
1 5580_1 0.000168
2 5580_2 6.12e-05
3 5580_3 0.00010848
*RES
1 *5581:Y 5580_1 4.66667
2 5580_1 5580_2 0.7
3 5580_2 *5582:B 0
4 5580_1 5580_3 1.68
5 5580_3 *5583:A 0
*END
*D_NET *5584 0.00099048
*CONN
*I *5585:Q O *D _3988
*I *5586:A I *L 0
*I *5587:A I *L 0
*CAP
1 5584_1 0
2 5584_2 0.00072936
3 5584_3 0.00026112
*RES
1 *5585:Q 5584_1 0
2 5584_1 5584_2 15.26
3 5584_2 *5586:A 0
4 5584_1 5584_3 4.05333
5 5584_3 *5587:A 0
*END
*D_NET *5588 0.00104424
*CONN
*I *5589:Y O *D _3039
*I *5590:A I *L 0
*I *5591:B I *L 0
*CAP
1 5588_1 0.00096288
2 5588_2 2.04e-05
3 5588_3 6.096e-05
*RES
1 *5589:Y 5588_1 14.7467
2 5588_1 5588_2 0.233333
3 5588_2 *5590:A 0
4 5588_2 5588_3 1.02667
5 5588_3 *5591:B 0
*END
*D_NET *5592 0.00015648
*CONN
*I *5593:Q O *D _4053
*I *5594:A I *L 0
*I *5595:A I *L 0
*CAP
1 5592_1 2.688e-05
2 5592_2 0.0001296
*RES
1 *5593:Q 5592_1 0.746667
2 5592_1 *5594:A 0
3 5592_1 5592_2 0.84
4 5592_2 *5595:A 0
*END
*D_NET *5596 0.000522
*CONN
*I *5597:Y O *D _3042
*I *5598:B I *L 0
*I *5599:A I *L 0
*CAP
1 5596_1 0.00043392
2 5596_2 2.04e-05
3 5596_3 6.768e-05
*RES
1 *5597:Y 5596_1 8.58667
2 5596_1 5596_2 0.233333
3 5596_2 *5598:B 0
4 5596_2 5596_3 1.21333
5 5596_3 *5599:A 0
*END
*D_NET *5600 0.00065976
*CONN
*I *5601:Q O *D _3989
*I *5602:A I *L 0
*I *5603:A I *L 0
*CAP
1 5600_1 0.00024072
2 5600_2 2.04e-05
3 5600_3 0.00039864
*RES
1 *5601:Q 5600_1 3.12667
2 5600_1 5600_2 0.233333
3 5600_2 *5602:A 0
4 5600_2 5600_3 4.94
5 5600_3 *5603:A 0
*END
*D_NET *5604 0.00045384
*CONN
*I *5605:Y O *D _3048
*I *5606:B I *L 0
*I *5607:A I *L 0
*CAP
1 5604_1 0.00022968
2 5604_2 8.16e-05
3 5604_3 0.00014256
*RES
1 *5605:Y 5604_1 4.71333
2 5604_1 5604_2 0.933333
3 5604_2 *5606:B 0
4 5604_1 5604_3 1.96
5 5604_3 *5607:A 0
*END
*D_NET *5608 0.00053016
*CONN
*I *5609:Q O *D _4054
*I *5610:A I *L 0
*I *5611:A I *L 0
*CAP
1 5608_1 0.00022056
2 5608_2 3.36e-05
3 5608_3 0.000276
*RES
1 *5609:Q 5608_1 2.56667
2 5608_1 5608_2 0.933333
3 5608_2 *5610:A 0
4 5608_1 5608_3 3.06667
5 5608_3 *5611:A 0
*END
*D_NET *5612 0.0003852
*CONN
*I *5613:Y O *D _3051
*I *5614:B I *L 0
*I *5615:A I *L 0
*CAP
1 5612_1 0.00031752
2 5612_2 0
3 5612_3 6.768e-05
*RES
1 *5613:Y 5612_1 6.48667
2 5612_1 5612_2 0
3 5612_2 *5614:B 0
4 5612_1 5612_3 1.21333
5 5612_3 *5615:A 0
*END
*D_NET *5616 0.0002928
*CONN
*I *5617:Q O *D _3990
*I *5618:A I *L 0
*I *5619:A I *L 0
*CAP
1 5616_1 0.0002064
2 5616_2 8.64e-05
*RES
1 *5617:Q 5616_1 3.17333
2 5616_1 *5618:A 0
3 5616_1 5616_2 0.56
4 5616_2 *5619:A 0
*END
*D_NET *5620 0.0003852
*CONN
*I *5621:Y O *D _3057
*I *5622:B I *L 0
*I *5623:A I *L 0
*CAP
1 5620_1 0.00024408
2 5620_2 2.04e-05
3 5620_3 0.00012072
*RES
1 *5621:Y 5620_1 3.78
2 5620_1 5620_2 0.233333
3 5620_2 *5622:B 0
4 5620_2 5620_3 1.82
5 5620_3 *5623:A 0
*END
*D_NET *5624 0.00063696
*CONN
*I *5625:Q O *D _4055
*I *5626:A I *L 0
*I *5627:A I *L 0
*CAP
1 5624_1 8.64e-05
2 5624_2 0.00055056
*RES
1 *5625:Q 5624_1 0.56
2 5624_1 *5626:A 0
3 5624_1 5624_2 6.62667
4 5624_2 *5627:A 0
*END
*D_NET *5628 0.00028536
*CONN
*I *5629:Y O *D _3060
*I *5630:B I *L 0
*I *5631:A I *L 0
*CAP
1 5628_1 0.00015576
2 5628_2 0.0001296
*RES
1 *5629:Y 5628_1 2.66
2 5628_1 *5630:B 0
3 5628_1 5628_2 0.84
4 5628_2 *5631:A 0
*END
*D_NET *5632 0.00019248
*CONN
*I *5633:Q O *D _3991
*I *5634:A I *L 0
*I *5635:A I *L 0
*CAP
1 5632_1 2.688e-05
2 5632_2 5.76e-05
3 5632_3 0.000108
*RES
1 *5633:Q 5632_1 0.746667
2 5632_1 5632_2 0.373333
3 5632_2 *5634:A 0
4 5632_1 5632_3 0.7
5 5632_3 *5635:A 0
*END
*D_NET *5636 0.00038712
*CONN
*I *5637:Y O *D _3066
*I *5638:B I *L 0
*I *5639:A I *L 0
*CAP
1 5636_1 8.136e-05
2 5636_2 0.00014256
3 5636_3 0.0001632
*RES
1 *5637:Y 5636_1 1.26
2 5636_1 5636_2 1.96
3 5636_2 *5638:B 0
4 5636_1 5636_3 1.86667
5 5636_3 *5639:A 0
*END
*D_NET *5640 0.0004692
*CONN
*I *5641:Q O *D _4056
*I *5642:A I *L 0
*I *5643:A I *L 0
*CAP
1 5640_1 0.0003396
2 5640_2 0.0001296
*RES
1 *5641:Q 5640_1 4.43333
2 5640_1 *5642:A 0
3 5640_1 5640_2 0.84
4 5640_2 *5643:A 0
*END
*D_NET *5644 0.00096816
*CONN
*I *5645:Y O *D _3069
*I *5646:B I *L 0
*I *5647:A I *L 0
*CAP
1 5644_1 0.00090048
2 5644_2 4.08e-05
3 5644_3 2.688e-05
*RES
1 *5645:Y 5644_1 10.4133
2 5644_1 5644_2 0.466667
3 5644_2 *5646:B 0
4 5644_1 5644_3 0.746667
5 5644_3 *5647:A 0
*END
*D_NET *5648 0.00053952
*CONN
*I *5649:Q O *D _3992
*I *5650:A I *L 0
*I *5651:A I *L 0
*CAP
1 5648_1 0.00037632
2 5648_2 2.04e-05
3 5648_3 0.0001428
*RES
1 *5649:Q 5648_1 5.22667
2 5648_1 5648_2 0.233333
3 5648_2 *5650:A 0
4 5648_2 5648_3 1.63333
5 5648_3 *5651:A 0
*END
*D_NET *5652 0.0010752
*CONN
*I *5653:Y O *D _3075
*I *5654:B I *L 0
*I *5655:A I *L 0
*CAP
1 5652_1 0.00081816
2 5652_2 4.08e-05
3 5652_3 0.00021624
*RES
1 *5653:Y 5652_1 10.1267
2 5652_1 5652_2 0.466667
3 5652_2 *5654:B 0
4 5652_1 5652_3 2.47333
5 5652_3 *5655:A 0
*END
*D_NET *5656 0.00024384
*CONN
*I *5657:Q O *D _4057
*I *5658:A I *L 0
*I *5659:A I *L 0
*CAP
1 5656_1 0
2 5656_2 0.0001356
3 5656_3 0.00010824
*RES
1 *5657:Q 5656_1 0
2 5656_1 5656_2 2.1
3 5656_2 *5658:A 0
4 5656_1 5656_3 2.00667
5 5656_3 *5659:A 0
*END
*D_NET *5660 0.0002664
*CONN
*I *5661:Y O *D _3078
*I *5662:A I *L 0
*I *5663:B I *L 0
*CAP
1 5660_1 0.00018
2 5660_2 8.64e-05
*RES
1 *5661:Y 5660_1 1.77333
2 5660_1 *5662:A 0
3 5660_1 5660_2 0.56
4 5660_2 *5663:B 0
*END
*D_NET *5664 0.00060384
*CONN
*I *5665:Q O *D _3993
*I *5666:A I *L 0
*I *5667:A I *L 0
*CAP
1 5664_1 0.00014208
2 5664_2 0
3 5664_3 0.00046176
*RES
1 *5665:Q 5664_1 2.61333
2 5664_1 5664_2 0
3 5664_2 *5666:A 0
4 5664_2 5664_3 6.16
5 5664_3 *5667:A 0
*END
*D_NET *5668 0.00033864
*CONN
*I *5669:Y O *D _3084
*I *5670:A I *L 0
*I *5671:B I *L 0
*CAP
1 5668_1 0.00027768
2 5668_2 4.08e-05
3 5668_3 2.016e-05
*RES
1 *5669:Y 5668_1 4.71333
2 5668_1 5668_2 0.466667
3 5668_2 *5670:A 0
4 5668_1 5668_3 0.56
5 5668_3 *5671:B 0
*END
*D_NET *5672 0.00021024
*CONN
*I *5673:Q O *D _4058
*I *5674:A I *L 0
*I *5675:A I *L 0
*CAP
1 5672_1 0.00014256
2 5672_2 0
3 5672_3 6.768e-05
*RES
1 *5673:Q 5672_1 1.96
2 5672_1 5672_2 0
3 5672_2 *5674:A 0
4 5672_1 5672_3 1.21333
5 5672_3 *5675:A 0
*END
*D_NET *5676 0.00039912
*CONN
*I *5677:Y O *D _3087
*I *5678:B I *L 0
*I *5679:A I *L 0
*CAP
1 5676_1 0.00022944
2 5676_2 8.16e-05
3 5676_3 8.808e-05
*RES
1 *5677:Y 5676_1 5.04
2 5676_1 5676_2 0.933333
3 5676_2 *5678:B 0
4 5676_1 5676_3 1.44667
5 5676_3 *5679:A 0
*END
*D_NET *5680 0.00029808
*CONN
*I *5681:Q O *D _3994
*I *5682:A I *L 0
*I *5683:A I *L 0
*CAP
1 5680_1 0.0002712
2 5680_2 2.688e-05
*RES
1 *5681:Q 5680_1 4.2
2 5680_1 *5682:A 0
3 5680_1 5680_2 0.746667
4 5680_2 *5683:A 0
*END
*D_NET *5684 0.00063264
*CONN
*I *5685:Y O *D _3093
*I *5686:B I *L 0
*I *5687:A I *L 0
*CAP
1 5684_1 0.00053088
2 5684_2 2.04e-05
3 5684_3 8.136e-05
*RES
1 *5685:Y 5684_1 5.78667
2 5684_1 5684_2 0.233333
3 5684_2 *5686:B 0
4 5684_2 5684_3 1.26
5 5684_3 *5687:A 0
*END
*D_NET *5688 0.000738
*CONN
*I *5689:Q O *D _4059
*I *5690:A I *L 0
*I *5691:A I *L 0
*CAP
1 5688_1 0.0003396
2 5688_2 6.096e-05
3 5688_3 0.00033744
*RES
1 *5689:Q 5688_1 4.43333
2 5688_1 5688_2 1.02667
3 5688_2 *5690:A 0
4 5688_1 5688_3 7.37333
5 5688_3 *5691:A 0
*END
*D_NET *5692 0.00082824
*CONN
*I *5693:Y O *D _3096
*I *5694:A I *L 0
*I *5695:B I *L 0
*CAP
1 5692_1 0.00074016
2 5692_2 2.04e-05
3 5692_3 6.768e-05
*RES
1 *5693:Y 5692_1 15.96
2 5692_1 5692_2 0.233333
3 5692_2 *5694:A 0
4 5692_2 5692_3 1.21333
5 5692_3 *5695:B 0
*END
*D_NET *5696 0.00019008
*CONN
*I *5697:Q O *D _4092
*I *5698:A I *L 0
*I *5699:A I *L 0
*CAP
1 5696_1 6.048e-05
2 5696_2 0.0001296
*RES
1 *5697:Q 5696_1 1.68
2 5696_1 *5698:A 0
3 5696_1 5696_2 0.84
4 5696_2 *5699:A 0
*END
*D_NET *5700 0.00015552
*CONN
*I *5701:Y O *D _3102
*I *5702:B I *L 0
*I *5703:A I *L 0
*CAP
1 5700_1 5.376e-05
2 5700_2 4.08e-05
3 5700_3 6.096e-05
*RES
1 *5701:Y 5700_1 1.49333
2 5700_1 5700_2 0.466667
3 5700_2 *5702:B 0
4 5700_1 5700_3 1.02667
5 5700_3 *5703:A 0
*END
*D_NET *5704 0.00058176
*CONN
*I *5705:Y O *D _3103
*I *5706:A I *L 0
*I *5707:A I *L 0
*CAP
1 5704_1 0.00026352
2 5704_2 0.00031824
*RES
1 *5705:Y 5704_1 5.32
2 5704_1 *5706:A 0
3 5704_1 5704_2 5.50667
4 5704_2 *5707:A 0
*END
*D_NET *5708 0.00021024
*CONN
*I *5709:Y O *D _3105
*I *5710:B I *L 0
*I *5711:A I *L 0
*CAP
1 5708_1 6.096e-05
2 5708_2 2.04e-05
3 5708_3 0.00012888
*RES
1 *5709:Y 5708_1 1.02667
2 5708_1 5708_2 0.233333
3 5708_2 *5710:B 0
4 5708_2 5708_3 1.91333
5 5708_3 *5711:A 0
*END
*D_NET *5712 0.00022896
*CONN
*I *5713:Q O *D _4093
*I *5714:A I *L 0
*I *5715:A I *L 0
*CAP
1 5712_1 8.64e-05
2 5712_2 0.00014256
*RES
1 *5713:Q 5712_1 0.56
2 5712_1 *5714:A 0
3 5712_1 5712_2 1.96
4 5712_2 *5715:A 0
*END
*D_NET *5716 0.00081264
*CONN
*I *5717:Y O *D _3110
*I *5718:A I *L 0
*I *5719:B I *L 0
*CAP
1 5716_1 0.00071088
2 5716_2 2.04e-05
3 5716_3 8.136e-05
*RES
1 *5717:Y 5716_1 6.94667
2 5716_1 5716_2 0.233333
3 5716_2 *5718:A 0
4 5716_2 5716_3 1.26
5 5716_3 *5719:B 0
*END
*D_NET *5720 0.00084624
*CONN
*I *5721:Y O *D _3111
*I *5722:A I *L 0
*I *5723:A I *L 0
*CAP
1 5720_1 0.00078864
2 5720_2 5.76e-05
*RES
1 *5721:Y 5720_1 8.04
2 5720_1 *5722:A 0
3 5720_1 5720_2 0.373333
4 5720_2 *5723:A 0
*END
*D_NET *5724 0.00017088
*CONN
*I *5725:Y O *D _3113
*I *5726:A I *L 0
*I *5727:B I *L 0
*CAP
1 5724_1 8.448e-05
2 5724_2 8.64e-05
*RES
1 *5725:Y 5724_1 1.12
2 5724_1 *5726:A 0
3 5724_1 5724_2 0.56
4 5724_2 *5727:B 0
*END
*D_NET *5728 0.00052872
*CONN
*I *5729:Q O *D _4094
*I *5730:A I *L 0
*I *5731:A I *L 0
*CAP
1 5728_1 0.000258
2 5728_2 6.12e-05
3 5728_3 0.00020952
*RES
1 *5729:Q 5728_1 3.5
2 5728_1 5728_2 0.7
3 5728_2 *5730:A 0
4 5728_1 5728_3 4.15333
5 5728_3 *5731:A 0
*END
*D_NET *5732 0.00074064
*CONN
*I *5733:Y O *D _3119
*I *5734:B I *L 0
*I *5735:A I *L 0
*CAP
1 5732_1 0.00061848
2 5732_2 2.04e-05
3 5732_3 0.00010176
*RES
1 *5733:Y 5732_1 7.51333
2 5732_1 5732_2 0.233333
3 5732_2 *5734:B 0
4 5732_2 5732_3 1.49333
5 5732_3 *5735:A 0
*END
*D_NET *5736 0.00048504
*CONN
*I *5737:Y O *D _3120
*I *5738:A I *L 0
*I *5739:A I *L 0
*CAP
1 5736_1 0.00042744
2 5736_2 5.76e-05
*RES
1 *5737:Y 5736_1 6.20667
2 5736_1 *5738:A 0
3 5736_1 5736_2 0.373333
4 5736_2 *5739:A 0
*END
*D_NET *5740 0.0002652
*CONN
*I *5741:Y O *D _3122
*I *5742:B I *L 0
*I *5743:A I *L 0
*CAP
1 5740_1 0.00019752
2 5740_2 0
3 5740_3 6.768e-05
*RES
1 *5741:Y 5740_1 2.48667
2 5740_1 5740_2 0
3 5740_2 *5742:B 0
4 5740_1 5740_3 1.21333
5 5740_3 *5743:A 0
*END
*D_NET *5744 0.00018096
*CONN
*I *5745:Q O *D _4095
*I *5746:A I *L 0
*I *5747:A I *L 0
*CAP
1 5744_1 8.64e-05
2 5744_2 9.456e-05
*RES
1 *5745:Q 5744_1 0.56
2 5744_1 *5746:A 0
3 5744_1 5744_2 1.96
4 5744_2 *5747:A 0
*END
*D_NET *5748 0.0004728
*CONN
*I *5749:Y O *D _3128
*I *5750:A I *L 0
*I *5751:B I *L 0
*CAP
1 5748_1 0.0003576
2 5748_2 2.04e-05
3 5748_3 9.48e-05
*RES
1 *5749:Y 5748_1 7.93333
2 5748_1 5748_2 0.233333
3 5748_2 *5750:A 0
4 5748_2 5748_3 1.63333
5 5748_3 *5751:B 0
*END
*D_NET *5752 0.00034368
*CONN
*I *5753:Y O *D _3129
*I *5754:A I *L 0
*I *5755:A I *L 0
*CAP
1 5752_1 5.376e-05
2 5752_2 4.08e-05
3 5752_3 0.00024912
*RES
1 *5753:Y 5752_1 1.49333
2 5752_1 5752_2 0.466667
3 5752_2 *5754:A 0
4 5752_1 5752_3 6.25333
5 5752_3 *5755:A 0
*END
*D_NET *5756 0.00023616
*CONN
*I *5757:Y O *D _3131
*I *5758:B I *L 0
*I *5759:A I *L 0
*CAP
1 5756_1 0.00010656
2 5756_2 0.0001296
*RES
1 *5757:Y 5756_1 1.12
2 5756_1 *5758:B 0
3 5756_1 5756_2 0.84
4 5756_2 *5759:A 0
*END
*D_NET *5760 0.00301632
*CONN
*I *5761:Q O *D _4096
*I *5762:A I *L 0
*I *5763:A I *L 0
*CAP
1 5760_1 0
2 5760_2 0.00033864
3 5760_3 0.00267768
*RES
1 *5761:Q 5760_1 0
2 5760_1 5760_2 3.27333
3 5760_2 *5762:A 0
4 5760_1 5760_3 24.62
5 5760_3 *5763:A 0
*END
*D_NET *5764 0.00149184
*CONN
*I *5765:Y O *D _3137
*I *5766:A I *L 0
*I *5767:B I *L 0
*CAP
1 5764_1 0.00139704
2 5764_2 6.12e-05
3 5764_3 3.36e-05
*RES
1 *5765:Y 5764_1 15.2067
2 5764_1 5764_2 0.7
3 5764_2 *5766:A 0
4 5764_1 5764_3 0.933333
5 5764_3 *5767:B 0
*END
*D_NET *5768 0.00106632
*CONN
*I *5769:Y O *D _3138
*I *5770:A I *L 0
*I *5771:A I *L 0
*CAP
1 5768_1 0.00100872
2 5768_2 5.76e-05
*RES
1 *5769:Y 5768_1 10.9533
2 5768_1 *5770:A 0
3 5768_1 5768_2 0.373333
4 5768_2 *5771:A 0
*END
*D_NET *5772 0.0002208
*CONN
*I *5773:Y O *D _3140
*I *5774:A I *L 0
*I *5775:B I *L 0
*CAP
1 5772_1 0.0001632
2 5772_2 5.76e-05
*RES
1 *5773:Y 5772_1 1.86667
2 5772_1 *5774:A 0
3 5772_1 5772_2 0.373333
4 5772_2 *5775:B 0
*END
*D_NET *5776 0.0005208
*CONN
*I *5777:Q O *D _4097
*I *5778:A I *L 0
*I *5779:A I *L 0
*CAP
1 5776_1 0.00032496
2 5776_2 3.264e-05
3 5776_3 0.0001632
*RES
1 *5777:Q 5776_1 5.69333
2 5776_1 5776_2 0.373333
3 5776_2 *5778:A 0
4 5776_1 5776_3 1.86667
5 5776_3 *5779:A 0
*END
*D_NET *5780 0.00010824
*CONN
*I *5781:Y O *D _3146
*I *5782:B I *L 0
*I *5783:A I *L 0
*CAP
1 5780_1 2.688e-05
2 5780_2 0
3 5780_3 8.136e-05
*RES
1 *5781:Y 5780_1 0.746667
2 5780_1 5780_2 0
3 5780_2 *5782:B 0
4 5780_2 5780_3 1.26
5 5780_3 *5783:A 0
*END
*D_NET *5784 0.0014856
*CONN
*I *5785:Y O *D _3147
*I *5786:A I *L 0
*I *5787:A I *L 0
*CAP
1 5784_1 0.001428
2 5784_2 5.76e-05
*RES
1 *5785:Y 5784_1 15.4
2 5784_1 *5786:A 0
3 5784_1 5784_2 0.373333
4 5784_2 *5787:A 0
*END
*D_NET *5788 0.00017088
*CONN
*I *5789:Y O *D _3149
*I *5790:A I *L 0
*I *5791:B I *L 0
*CAP
1 5788_1 8.448e-05
2 5788_2 8.64e-05
*RES
1 *5789:Y 5788_1 1.12
2 5788_1 *5790:A 0
3 5788_1 5788_2 0.56
4 5788_2 *5791:B 0
*END
*D_NET *5792 0.00034944
*CONN
*I *5793:Q O *D _4098
*I *5794:A I *L 0
*I *5795:A I *L 0
*CAP
1 5792_1 0.00014784
2 5792_2 0.0002016
*RES
1 *5793:Q 5792_1 4.10667
2 5792_1 *5794:A 0
3 5792_1 5792_2 1.30667
4 5792_2 *5795:A 0
*END
*D_NET *5796 0.00070656
*CONN
*I *5797:Y O *D _3155
*I *5798:A I *L 0
*I *5799:B I *L 0
*CAP
1 5796_1 0.00061176
2 5796_2 6.12e-05
3 5796_3 3.36e-05
*RES
1 *5797:Y 5796_1 7.66
2 5796_1 5796_2 0.7
3 5796_2 *5798:A 0
4 5796_1 5796_3 0.933333
5 5796_3 *5799:B 0
*END
*D_NET *5800 0.00073752
*CONN
*I *5801:Y O *D _3156
*I *5802:A I *L 0
*I *5803:A I *L 0
*CAP
1 5800_1 0.00065112
2 5800_2 8.64e-05
*RES
1 *5801:Y 5800_1 7.28667
2 5800_1 *5802:A 0
3 5800_1 5800_2 0.56
4 5800_2 *5803:A 0
*END
*D_NET *5804 0.00047808
*CONN
*I *5805:Y O *D _3158
*I *5806:B I *L 0
*I *5807:A I *L 0
*CAP
1 5804_1 0.00030264
2 5804_2 6.12e-05
3 5804_3 0.00011424
*RES
1 *5805:Y 5804_1 8.07333
2 5804_1 5804_2 0.7
3 5804_2 *5806:B 0
4 5804_1 5804_3 1.30667
5 5804_3 *5807:A 0
*END
*D_NET *5808 0.00058968
*CONN
*I *5809:Q O *D _4099
*I *5810:A I *L 0
*I *5811:A I *L 0
*CAP
1 5808_1 0.00014256
2 5808_2 6.768e-05
3 5808_3 0.00037944
*RES
1 *5809:Q 5808_1 1.96
2 5808_1 5808_2 1.21333
3 5808_2 *5810:A 0
4 5808_1 5808_3 4.34
5 5808_3 *5811:A 0
*END
*D_NET *5812 0.00019968
*CONN
*I *5813:Y O *D _3164
*I *5814:B I *L 0
*I *5815:A I *L 0
*CAP
1 5812_1 2.688e-05
2 5812_2 0.0001728
*RES
1 *5813:Y 5812_1 0.746667
2 5812_1 *5814:B 0
3 5812_1 5812_2 1.12
4 5812_2 *5815:A 0
*END
*D_NET *5816 0.00098232
*CONN
*I *5817:Y O *D _3165
*I *5818:A I *L 0
*I *5819:A I *L 0
*CAP
1 5816_1 4.032e-05
2 5816_2 0.00015456
3 5816_3 0.00078744
*RES
1 *5817:Y 5816_1 1.12
2 5816_1 5816_2 4.29333
3 5816_2 *5818:A 0
4 5816_1 5816_3 6.20667
5 5816_3 *5819:A 0
*END
*D_NET *5820 0.0002112
*CONN
*I *5821:Y O *D _3167
*I *5822:A I *L 0
*I *5823:B I *L 0
*CAP
1 5820_1 0.0001248
2 5820_2 8.64e-05
*RES
1 *5821:Y 5820_1 2.24
2 5820_1 *5822:A 0
3 5820_1 5820_2 0.56
4 5820_2 *5823:B 0
*END
*D_NET *5824 0.00026976
*CONN
*I *5825:Q O *D _4100
*I *5826:A I *L 0
*I *5827:A I *L 0
*CAP
1 5824_1 8.64e-05
2 5824_2 0.00018336
*RES
1 *5825:Q 5824_1 0.56
2 5824_1 *5826:A 0
3 5824_1 5824_2 2.42667
4 5824_2 *5827:A 0
*END
*D_NET *5828 0.00053448
*CONN
*I *5829:Y O *D _3173
*I *5830:A I *L 0
*I *5831:B I *L 0
*CAP
1 5828_1 0.00029688
2 5828_2 0.0001224
3 5828_3 0.0001152
*RES
1 *5829:Y 5828_1 6.58
2 5828_1 5828_2 1.4
3 5828_2 *5830:A 0
4 5828_1 5828_3 1.86667
5 5828_3 *5831:B 0
*END
*D_NET *5832 0.00034104
*CONN
*I *5833:Y O *D _3174
*I *5834:A I *L 0
*I *5835:A I *L 0
*CAP
1 5832_1 0.00028344
2 5832_2 5.76e-05
*RES
1 *5833:Y 5832_1 3.07333
2 5832_1 *5834:A 0
3 5832_1 5832_2 0.373333
4 5832_2 *5835:A 0
*END
*D_NET *5836 0.0001968
*CONN
*I *5837:Y O *D _3176
*I *5838:B I *L 0
*I *5839:A I *L 0
*CAP
1 5836_1 6.72e-05
2 5836_2 0.0001296
*RES
1 *5837:Y 5836_1 1.86667
2 5836_1 *5838:B 0
3 5836_1 5836_2 0.84
4 5836_2 *5839:A 0
*END
*D_NET *5840 0.0002292
*CONN
*I *5841:Q O *D _4101
*I *5842:A I *L 0
*I *5843:A I *L 0
*CAP
1 5840_1 8.64e-05
2 5840_2 0.0001428
*RES
1 *5841:Q 5840_1 0.56
2 5840_1 *5842:A 0
3 5840_1 5840_2 1.63333
4 5840_2 *5843:A 0
*END
*D_NET *5844 0.00013872
*CONN
*I *5845:Y O *D _3182
*I *5846:B I *L 0
*I *5847:A I *L 0
*CAP
1 5844_1 8.112e-05
2 5844_2 5.76e-05
*RES
1 *5845:Y 5844_1 1.58667
2 5844_1 *5846:B 0
3 5844_1 5844_2 0.373333
4 5844_2 *5847:A 0
*END
*D_NET *5848 0.00043248
*CONN
*I *5849:Y O *D _3183
*I *5850:A I *L 0
*I *5851:A I *L 0
*CAP
1 5848_1 0.00020904
2 5848_2 0.00022344
*RES
1 *5849:Y 5848_1 2.00667
2 5848_1 *5850:A 0
3 5848_1 5848_2 3.87333
4 5848_2 *5851:A 0
*END
*D_NET *5852 0.00061272
*CONN
*I *5853:Y O *D _3185
*I *5854:A I *L 0
*I *5855:B I *L 0
*CAP
1 5852_1 0.00055512
2 5852_2 5.76e-05
*RES
1 *5853:Y 5852_1 9.75333
2 5852_1 *5854:A 0
3 5852_1 5852_2 0.373333
4 5852_2 *5855:B 0
*END
*D_NET *5856 0.00078816
*CONN
*I *5857:Q O *D _4102
*I *5858:A I *L 0
*I *5859:A I *L 0
*CAP
1 5856_1 0.0002088
2 5856_2 0.00057936
*RES
1 *5857:Q 5856_1 1.96
2 5856_1 *5858:A 0
3 5856_1 5856_2 14.0933
4 5856_2 *5859:A 0
*END
*D_NET *5860 0.00063144
*CONN
*I *5861:Y O *D _3191
*I *5862:A I *L 0
*I *5863:B I *L 0
*CAP
1 5860_1 0.00045504
2 5860_2 4.08e-05
3 5860_3 0.0001356
*RES
1 *5861:Y 5860_1 10.64
2 5860_1 5860_2 0.466667
3 5860_2 *5862:A 0
4 5860_1 5860_3 2.1
5 5860_3 *5863:B 0
*END
*D_NET *5864 0.00173016
*CONN
*I *5865:Y O *D _3192
*I *5866:A I *L 0
*I *5867:A I *L 0
*CAP
1 5864_1 0.00167256
2 5864_2 5.76e-05
*RES
1 *5865:Y 5864_1 18.5933
2 5864_1 *5866:A 0
3 5864_1 5864_2 0.373333
4 5864_2 *5867:A 0
*END
*D_NET *5868 0.00123816
*CONN
*I *5869:Y O *D _3194
*I *5870:B I *L 0
*I *5871:A I *L 0
*CAP
1 5868_1 0.00118392
2 5868_2 1.344e-05
3 5868_3 4.08e-05
*RES
1 *5869:Y 5868_1 14.9533
2 5868_1 5868_2 0.373333
3 5868_2 *5870:B 0
4 5868_1 5868_3 0.466667
5 5868_3 *5871:A 0
*END
*D_NET *5872 0.00028176
*CONN
*I *5873:Q O *D _4103
*I *5874:A I *L 0
*I *5875:A I *L 0
*CAP
1 5872_1 0.00015216
2 5872_2 0.0001296
*RES
1 *5873:Q 5872_1 2.33333
2 5872_1 *5874:A 0
3 5872_1 5872_2 0.84
4 5872_2 *5875:A 0
*END
*D_NET *5876 0.00023088
*CONN
*I *5877:Y O *D _3200
*I *5878:A I *L 0
*I *5879:B I *L 0
*CAP
1 5876_1 2.04e-05
2 5876_2 0.000102
3 5876_3 0.00010848
*RES
1 *5877:Y 5876_1 0.233333
2 5876_1 5876_2 1.16667
3 5876_2 *5878:A 0
4 5876_1 5876_3 1.68
5 5876_3 *5879:B 0
*END
*D_NET *5880 0.00054768
*CONN
*I *5881:Y O *D _3201
*I *5882:A I *L 0
*I *5883:A I *L 0
*CAP
1 5880_1 0.00049008
2 5880_2 5.76e-05
*RES
1 *5881:Y 5880_1 5.61333
2 5880_1 *5882:A 0
3 5880_1 5880_2 0.373333
4 5880_2 *5883:A 0
*END
*D_NET *5884 0.00033144
*CONN
*I *5885:Y O *D _3203
*I *5886:A I *L 0
*I *5887:B I *L 0
*CAP
1 5884_1 0.00012768
2 5884_2 0
3 5884_3 0.00020376
*RES
1 *5885:Y 5884_1 3.54667
2 5884_1 5884_2 0
3 5884_2 *5886:A 0
4 5884_1 5884_3 2.66
5 5884_3 *5887:B 0
*END
*D_NET *5888 0.00044088
*CONN
*I *5889:Q O *D _4104
*I *5890:A I *L 0
*I *5891:A I *L 0
*CAP
1 5888_1 0.000306
2 5888_2 7.44e-05
3 5888_3 6.048e-05
*RES
1 *5889:Q 5888_1 3.5
2 5888_1 5888_2 1.4
3 5888_2 *5890:A 0
4 5888_1 5888_3 1.68
5 5888_3 *5891:A 0
*END
*D_NET *5892 0.00046128
*CONN
*I *5893:Y O *D _3209
*I *5894:A I *L 0
*I *5895:B I *L 0
*CAP
1 5892_1 0.00036648
2 5892_2 0
3 5892_3 9.48e-05
*RES
1 *5893:Y 5892_1 5.18
2 5892_1 5892_2 0
3 5892_2 *5894:A 0
4 5892_2 5892_3 1.63333
5 5892_3 *5895:B 0
*END
*D_NET *5896 0.00098736
*CONN
*I *5897:Y O *D _3210
*I *5898:A I *L 0
*I *5899:A I *L 0
*CAP
1 5896_1 0.0001308
2 5896_2 2.016e-05
3 5896_3 0.0008364
*RES
1 *5897:Y 5896_1 1.63333
2 5896_1 5896_2 0.56
3 5896_2 *5898:A 0
4 5896_1 5896_3 9.00667
5 5896_3 *5899:A 0
*END
*D_NET *5900 9.12e-05
*CONN
*I *5901:Y O *D _3212
*I *5902:A I *L 0
*I *5903:B I *L 0
*CAP
1 5900_1 3.36e-05
2 5900_2 5.76e-05
*RES
1 *5901:Y 5900_1 0.933333
2 5900_1 *5902:A 0
3 5900_1 5900_2 0.373333
4 5900_2 *5903:B 0
*END
*D_NET *5904 0.00080472
*CONN
*I *5905:Q O *D _4105
*I *5906:A I *L 0
*I *5907:A I *L 0
*CAP
1 5904_1 0.00031056
2 5904_2 8.16e-05
3 5904_3 0.00041256
*RES
1 *5905:Q 5904_1 6.62667
2 5904_1 5904_2 0.933333
3 5904_2 *5906:A 0
4 5904_1 5904_3 7.79333
5 5904_3 *5907:A 0
*END
*D_NET *5908 0.00115848
*CONN
*I *5909:Y O *D _3218
*I *5910:B I *L 0
*I *5911:A I *L 0
*CAP
1 5908_1 0.00095496
2 5908_2 0
3 5908_3 0.00020352
*RES
1 *5909:Y 5908_1 11.3267
2 5908_1 5908_2 0
3 5908_2 *5910:B 0
4 5908_2 5908_3 2.98667
5 5908_3 *5911:A 0
*END
*D_NET *5912 0.0002208
*CONN
*I *5913:Y O *D _3219
*I *5914:A I *L 0
*I *5915:A I *L 0
*CAP
1 5912_1 5.76e-05
2 5912_2 0.0001632
*RES
1 *5913:Y 5912_1 0.373333
2 5912_1 *5914:A 0
3 5912_1 5912_2 1.86667
4 5912_2 *5915:A 0
*END
*D_NET *5916 0.00048936
*CONN
*I *5917:Y O *D _3221
*I *5918:B I *L 0
*I *5919:A I *L 0
*CAP
1 5916_1 0.0002448
2 5916_2 2.04e-05
3 5916_3 0.00022416
*RES
1 *5917:Y 5916_1 2.8
2 5916_1 5916_2 0.233333
3 5916_2 *5918:B 0
4 5916_2 5916_3 2.89333
5 5916_3 *5919:A 0
*END
*D_NET *5920 0.00050328
*CONN
*I *5921:Q O *D _4106
*I *5922:A I *L 0
*I *5923:A I *L 0
*CAP
1 5920_1 0.00016512
2 5920_2 4.08e-05
3 5920_3 0.00029736
*RES
1 *5921:Q 5920_1 3.36
2 5920_1 5920_2 0.466667
3 5920_2 *5922:A 0
4 5920_1 5920_3 5.92667
5 5920_3 *5923:A 0
*END
*D_NET *5924 0.0001488
*CONN
*I *5925:Y O *D _3227
*I *5926:B I *L 0
*I *5927:A I *L 0
*CAP
1 5924_1 9.12e-05
2 5924_2 5.76e-05
*RES
1 *5925:Y 5924_1 1.30667
2 5924_1 *5926:B 0
3 5924_1 5924_2 0.373333
4 5924_2 *5927:A 0
*END
*D_NET *5928 0.0011736
*CONN
*I *5929:Y O *D _3228
*I *5930:A I *L 0
*I *5931:A I *L 0
*CAP
1 5928_1 0.0010824
2 5928_2 9.12e-05
*RES
1 *5929:Y 5928_1 11.6667
2 5928_1 *5930:A 0
3 5928_1 5928_2 1.30667
4 5928_2 *5931:A 0
*END
*D_NET *5932 0.00056736
*CONN
*I *5933:Y O *D _3230
*I *5934:B I *L 0
*I *5935:A I *L 0
*CAP
1 5932_1 0.00043776
2 5932_2 0.0001296
*RES
1 *5933:Y 5932_1 10.8267
2 5932_1 *5934:B 0
3 5932_1 5932_2 0.84
4 5932_2 *5935:A 0
*END
*D_NET *5936 0.00035664
*CONN
*I *5937:Q O *D _4107
*I *5938:A I *L 0
*I *5939:A I *L 0
*CAP
1 5936_1 0.0002016
2 5936_2 0.00015504
*RES
1 *5937:Q 5936_1 1.30667
2 5936_1 *5938:A 0
3 5936_1 5936_2 1.77333
4 5936_2 *5939:A 0
*END
*D_NET *5940 0.00023184
*CONN
*I *5941:Y O *D _3236
*I *5942:B I *L 0
*I *5943:A I *L 0
*CAP
1 5940_1 0.00017088
2 5940_2 0
3 5940_3 6.096e-05
*RES
1 *5941:Y 5940_1 1.68
2 5940_1 5940_2 0
3 5940_2 *5942:B 0
4 5940_1 5940_3 1.02667
5 5940_3 *5943:A 0
*END
*D_NET *5944 0.00047832
*CONN
*I *5945:Y O *D _3237
*I *5946:A I *L 0
*I *5947:A I *L 0
*CAP
1 5944_1 8.64e-05
2 5944_2 0.00039192
*RES
1 *5945:Y 5944_1 0.56
2 5944_1 *5946:A 0
3 5944_1 5944_2 7.88667
4 5944_2 *5947:A 0
*END
*D_NET *5948 0.00021936
*CONN
*I *5949:Y O *D _3239
*I *5950:B I *L 0
*I *5951:A I *L 0
*CAP
1 5948_1 0.00015168
2 5948_2 0
3 5948_3 6.768e-05
*RES
1 *5949:Y 5948_1 2.98667
2 5948_1 5948_2 0
3 5948_2 *5950:B 0
4 5948_1 5948_3 1.21333
5 5948_3 *5951:A 0
*END
*D_NET *5952 0.0002496
*CONN
*I *5953:Q O *D _4108
*I *5954:A I *L 0
*I *5955:A I *L 0
*CAP
1 5952_1 5.376e-05
2 5952_2 3.264e-05
3 5952_3 0.0001632
*RES
1 *5953:Q 5952_1 1.49333
2 5952_1 5952_2 0.373333
3 5952_2 *5954:A 0
4 5952_1 5952_3 1.86667
5 5952_3 *5955:A 0
*END
*D_NET *5956 0.00129936
*CONN
*I *5957:Y O *D _3245
*I *5958:A I *L 0
*I *5959:B I *L 0
*CAP
1 5956_1 0.00120456
2 5956_2 2.04e-05
3 5956_3 7.44e-05
*RES
1 *5957:Y 5956_1 14.9267
2 5956_1 5956_2 0.233333
3 5956_2 *5958:A 0
4 5956_2 5956_3 1.4
5 5956_3 *5959:B 0
*END
*D_NET *5960 0.00213288
*CONN
*I *5961:Y O *D _3246
*I *5962:A I *L 0
*I *5963:A I *L 0
*CAP
1 5960_1 0.00207528
2 5960_2 5.76e-05
*RES
1 *5961:Y 5960_1 23.3
2 5960_1 *5962:A 0
3 5960_1 5960_2 0.373333
4 5960_2 *5963:A 0
*END
*D_NET *5964 0.00109512
*CONN
*I *5965:Y O *D _3248
*I *5966:B I *L 0
*I *5967:A I *L 0
*CAP
1 5964_1 0.00096552
2 5964_2 0.0001296
*RES
1 *5965:Y 5964_1 13.4867
2 5964_1 *5966:B 0
3 5964_1 5964_2 0.84
4 5964_2 *5967:A 0
*END
*D_NET *5968 0.00030984
*CONN
*I *5969:Q O *D _4109
*I *5970:A I *L 0
*I *5971:A I *L 0
*CAP
1 5968_1 0.00022344
2 5968_2 8.64e-05
*RES
1 *5969:Q 5968_1 3.87333
2 5968_1 *5970:A 0
3 5968_1 5968_2 0.56
4 5968_2 *5971:A 0
*END
*D_NET *5972 0.00013512
*CONN
*I *5973:Y O *D _3254
*I *5974:A I *L 0
*I *5975:B I *L 0
*CAP
1 5972_1 4.032e-05
2 5972_2 0
3 5972_3 9.48e-05
*RES
1 *5973:Y 5972_1 1.12
2 5972_1 5972_2 0
3 5972_2 *5974:A 0
4 5972_1 5972_3 1.63333
5 5972_3 *5975:B 0
*END
*D_NET *5976 0.00050376
*CONN
*I *5977:Y O *D _3255
*I *5978:A I *L 0
*I *5979:A I *L 0
*CAP
1 5976_1 0.00025656
2 5976_2 4.08e-05
3 5976_3 0.0002064
*RES
1 *5977:Y 5976_1 5.46
2 5976_1 5976_2 0.466667
3 5976_2 *5978:A 0
4 5976_1 5976_3 3.73333
5 5976_3 *5979:A 0
*END
*D_NET *5980 0.00070584
*CONN
*I *5981:Y O *D _3257
*I *5982:B I *L 0
*I *5983:A I *L 0
*CAP
1 5980_1 0.00057624
2 5980_2 0.0001296
*RES
1 *5981:Y 5980_1 9.00667
2 5980_1 *5982:B 0
3 5980_1 5980_2 0.84
4 5980_2 *5983:A 0
*END
*D_NET *5984 0.00065208
*CONN
*I *5985:Q O *D _4110
*I *5986:A I *L 0
*I *5987:A I *L 0
*CAP
1 5984_1 0.00016992
2 5984_2 0.00014232
3 5984_3 0.00033984
*RES
1 *5985:Q 5984_1 2.72
2 5984_1 5984_2 2.28667
3 5984_2 *5986:A 0
4 5984_1 5984_3 4.10667
5 5984_3 *5987:A 0
*END
*D_NET *5988 0.00093696
*CONN
*I *5989:Y O *D _3263
*I *5990:A I *L 0
*I *5991:B I *L 0
*CAP
1 5988_1 0.00080976
2 5988_2 7.344e-05
3 5988_3 5.376e-05
*RES
1 *5989:Y 5988_1 9.42667
2 5988_1 5988_2 0.84
3 5988_2 *5990:A 0
4 5988_1 5988_3 1.49333
5 5988_3 *5991:B 0
*END
*D_NET *5992 0.00120264
*CONN
*I *5993:Y O *D _3264
*I *5994:A I *L 0
*I *5995:A I *L 0
*CAP
1 5992_1 0.00020016
2 5992_2 0.0002568
3 5992_3 0.00074568
*RES
1 *5993:Y 5992_1 2.33333
2 5992_1 5992_2 5.13333
3 5992_2 *5994:A 0
4 5992_1 5992_3 7.11333
5 5992_3 *5995:A 0
*END
*D_NET *5996 0.0003648
*CONN
*I *5997:Y O *D _3266
*I *5998:B I *L 0
*I *5999:A I *L 0
*CAP
1 5996_1 0.0001224
2 5996_2 0.0001272
3 5996_3 0.0001152
*RES
1 *5997:Y 5996_1 1.4
2 5996_1 5996_2 1.02667
3 5996_2 *5998:B 0
4 5996_1 5996_3 0.746667
5 5996_3 *5999:A 0
*END
*D_NET *6000 0.00063696
*CONN
*I *6001:Q O *D _4111
*I *6002:A I *L 0
*I *6003:A I *L 0
*CAP
1 6000_1 0.0001224
2 6000_2 0.00044064
3 6000_3 7.392e-05
*RES
1 *6001:Q 6000_1 1.4
2 6000_1 6000_2 6.90667
3 6000_2 *6002:A 0
4 6000_1 6000_3 2.05333
5 6000_3 *6003:A 0
*END
*D_NET *6004 0.000228
*CONN
*I *6005:Y O *D _3272
*I *6006:A I *L 0
*I *6007:B I *L 0
*CAP
1 6004_1 0.0001224
2 6004_2 7.2e-05
3 6004_3 3.36e-05
*RES
1 *6005:Y 6004_1 0.793333
2 6004_1 6004_2 0.466667
3 6004_2 *6006:A 0
4 6004_1 6004_3 0.933333
5 6004_3 *6007:B 0
*END
*D_NET *6008 0.00061176
*CONN
*I *6009:Y O *D _3273
*I *6010:A I *L 0
*I *6011:A I *L 0
*CAP
1 6008_1 0.00055416
2 6008_2 5.76e-05
*RES
1 *6009:Y 6008_1 9.19333
2 6008_1 *6010:A 0
3 6008_1 6008_2 0.373333
4 6008_2 *6011:A 0
*END
*D_NET *6012 0.000234
*CONN
*I *6013:Y O *D _3275
*I *6014:A I *L 0
*I *6015:B I *L 0
*CAP
1 6012_1 0.0001764
2 6012_2 5.76e-05
*RES
1 *6013:Y 6012_1 2.56667
2 6012_1 *6014:A 0
3 6012_1 6012_2 0.373333
4 6012_2 *6015:B 0
*END
*D_NET *6016 0.00079128
*CONN
*I *6017:Q O *D _4112
*I *6018:A I *L 0
*I *6019:A I *L 0
*CAP
1 6016_1 8.64e-05
2 6016_2 0.00070488
*RES
1 *6017:Q 6016_1 0.56
2 6016_1 *6018:A 0
3 6016_1 6016_2 9.38
4 6016_2 *6019:A 0
*END
*D_NET *6020 0.00048096
*CONN
*I *6021:Y O *D _3281
*I *6022:A I *L 0
*I *6023:B I *L 0
*CAP
1 6020_1 0.00040656
2 6020_2 0
3 6020_3 7.44e-05
*RES
1 *6021:Y 6020_1 4.82667
2 6020_1 6020_2 0
3 6020_2 *6022:A 0
4 6020_1 6020_3 1.4
5 6020_3 *6023:B 0
*END
*D_NET *6024 0.00101352
*CONN
*I *6025:Y O *D _3282
*I *6026:A I *L 0
*I *6027:A I *L 0
*CAP
1 6024_1 4.08e-05
2 6024_2 0.00022344
3 6024_3 0.00074928
*RES
1 *6025:Y 6024_1 0.466667
2 6024_1 6024_2 3.87333
3 6024_2 *6026:A 0
4 6024_1 6024_3 7.74667
5 6024_3 *6027:A 0
*END
*D_NET *6028 0.00056184
*CONN
*I *6029:Y O *D _3284
*I *6030:B I *L 0
*I *6031:A I *L 0
*CAP
1 6028_1 0.00043224
2 6028_2 0.0001296
*RES
1 *6029:Y 6028_1 9.00667
2 6028_1 *6030:B 0
3 6028_1 6028_2 0.84
4 6028_2 *6031:A 0
*END
*D_NET *6032 0.0007848
*CONN
*I *6033:Q O *D _4113
*I *6034:A I *L 0
*I *6035:A I *L 0
*CAP
1 6032_1 0
2 6032_2 0.00048768
3 6032_3 0.00029712
*RES
1 *6033:Q 6032_1 0
2 6032_1 6032_2 8.21333
3 6032_2 *6034:A 0
4 6032_1 6032_3 6.25333
5 6032_3 *6035:A 0
*END
*D_NET *6036 0.00015912
*CONN
*I *6037:Y O *D _3290
*I *6038:A I *L 0
*I *6039:B I *L 0
*CAP
1 6036_1 7.776e-05
2 6036_2 0
3 6036_3 8.136e-05
*RES
1 *6037:Y 6036_1 0.933333
2 6036_1 6036_2 0
3 6036_2 *6038:A 0
4 6036_1 6036_3 1.26
5 6036_3 *6039:B 0
*END
*D_NET *6040 0.00096456
*CONN
*I *6041:Y O *D _3291
*I *6042:A I *L 0
*I *6043:A I *L 0
*CAP
1 6040_1 0.00081528
2 6040_2 0.00014928
*RES
1 *6041:Y 6040_1 10.3133
2 6040_1 *6042:A 0
3 6040_1 6040_2 2.14667
4 6040_2 *6043:A 0
*END
*D_NET *6044 0.00023016
*CONN
*I *6045:Y O *D _3293
*I *6046:B I *L 0
*I *6047:A I *L 0
*CAP
1 6044_1 0.00010128
2 6044_2 4.08e-05
3 6044_3 8.808e-05
*RES
1 *6045:Y 6044_1 2.14667
2 6044_1 6044_2 0.466667
3 6044_2 *6046:B 0
4 6044_1 6044_3 1.44667
5 6044_3 *6047:A 0
*END
*D_NET *6048 0.00048144
*CONN
*I *6049:Q O *D _4114
*I *6050:A I *L 0
*I *6051:A I *L 0
*CAP
1 6048_1 0.00031824
2 6048_2 2.04e-05
3 6048_3 0.0001428
*RES
1 *6049:Q 6048_1 5.50667
2 6048_1 6048_2 0.233333
3 6048_2 *6050:A 0
4 6048_2 6048_3 1.63333
5 6048_3 *6051:A 0
*END
*D_NET *6052 0.00025992
*CONN
*I *6053:Y O *D _3299
*I *6054:B I *L 0
*I *6055:A I *L 0
*CAP
1 6052_1 0.00013104
2 6052_2 2.04e-05
3 6052_3 0.00010848
*RES
1 *6053:Y 6052_1 1.21333
2 6052_1 6052_2 0.233333
3 6052_2 *6054:B 0
4 6052_2 6052_3 1.68
5 6052_3 *6055:A 0
*END
*D_NET *6056 0.00216768
*CONN
*I *6057:Y O *D _3300
*I *6058:A I *L 0
*I *6059:A I *L 0
*CAP
1 6056_1 0.00211008
2 6056_2 5.76e-05
*RES
1 *6057:Y 6056_1 26.88
2 6056_1 *6058:A 0
3 6056_1 6056_2 0.373333
4 6056_2 *6059:A 0
*END
*D_NET *6060 0.00030408
*CONN
*I *6061:Y O *D _3302
*I *6062:B I *L 0
*I *6063:A I *L 0
*CAP
1 6060_1 0.00019584
2 6060_2 2.04e-05
3 6060_3 8.784e-05
*RES
1 *6061:Y 6060_1 2.24
2 6060_1 6060_2 0.233333
3 6060_2 *6062:B 0
4 6060_2 6060_3 1.77333
5 6060_3 *6063:A 0
*END
*D_NET *6064 0.00107664
*CONN
*I *6065:Q O *D _4115
*I *6066:A I *L 0
*I *6067:A I *L 0
*CAP
1 6064_1 0.00031128
2 6064_2 3.264e-05
3 6064_3 0.00073272
*RES
1 *6065:Q 6064_1 5.64667
2 6064_1 6064_2 0.373333
3 6064_2 *6066:A 0
4 6064_1 6064_3 10.6867
5 6064_3 *6067:A 0
*END
*D_NET *6068 0.00131808
*CONN
*I *6069:Y O *D _3308
*I *6070:B I *L 0
*I *6071:A I *L 0
*CAP
1 6068_1 0.00119592
2 6068_2 6.12e-05
3 6068_3 6.096e-05
*RES
1 *6069:Y 6068_1 14.8867
2 6068_1 6068_2 0.7
3 6068_2 *6070:B 0
4 6068_1 6068_3 1.02667
5 6068_3 *6071:A 0
*END
*D_NET *6072 0.00181656
*CONN
*I *6073:Y O *D _3309
*I *6074:A I *L 0
*I *6075:A I *L 0
*CAP
1 6072_1 0.00173016
2 6072_2 8.64e-05
*RES
1 *6073:Y 6072_1 20.7667
2 6072_1 *6074:A 0
3 6072_1 6072_2 0.56
4 6072_2 *6075:A 0
*END
*D_NET *6076 0.00015408
*CONN
*I *6077:Y O *D _3311
*I *6078:B I *L 0
*I *6079:A I *L 0
*CAP
1 6076_1 8.64e-05
2 6076_2 6.768e-05
*RES
1 *6077:Y 6076_1 0.56
2 6076_1 *6078:B 0
3 6076_1 6076_2 1.21333
4 6076_2 *6079:A 0
*END
*D_NET *6080 0.00032352
*CONN
*I *6081:Q O *D _4116
*I *6082:A I *L 0
*I *6083:A I *L 0
*CAP
1 6080_1 8.64e-05
2 6080_2 0.00023712
*RES
1 *6081:Q 6080_1 0.56
2 6080_1 *6082:A 0
3 6080_1 6080_2 3.92
4 6080_2 *6083:A 0
*END
*D_NET *6084 0.0010956
*CONN
*I *6085:Y O *D _3317
*I *6086:A I *L 0
*I *6087:B I *L 0
*CAP
1 6084_1 0.0009396
2 6084_2 4.08e-05
3 6084_3 0.0001152
*RES
1 *6085:Y 6084_1 10.7667
2 6084_1 6084_2 0.466667
3 6084_2 *6086:A 0
4 6084_1 6084_3 1.86667
5 6084_3 *6087:B 0
*END
*D_NET *6088 0.00134544
*CONN
*I *6089:Y O *D _3318
*I *6090:A I *L 0
*I *6091:A I *L 0
*CAP
1 6088_1 0.00125904
2 6088_2 8.64e-05
*RES
1 *6089:Y 6088_1 17.08
2 6088_1 *6090:A 0
3 6088_1 6088_2 0.56
4 6088_2 *6091:A 0
*END
*D_NET *6092 0.00023616
*CONN
*I *6093:Y O *D _3320
*I *6094:B I *L 0
*I *6095:A I *L 0
*CAP
1 6092_1 0.00010656
2 6092_2 0.0001296
*RES
1 *6093:Y 6092_1 1.12
2 6092_1 *6094:B 0
3 6092_1 6092_2 0.84
4 6092_2 *6095:A 0
*END
*D_NET *6096 0.0004356
*CONN
*I *6097:Q O *D _4117
*I *6098:A I *L 0
*I *6099:A I *L 0
*CAP
1 6096_1 0.000306
2 6096_2 0.0001296
*RES
1 *6097:Q 6096_1 3.5
2 6096_1 *6098:A 0
3 6096_1 6096_2 0.84
4 6096_2 *6099:A 0
*END
*D_NET *6100 0.00072576
*CONN
*I *6101:Y O *D _3326
*I *6102:B I *L 0
*I *6103:A I *L 0
*CAP
1 6100_1 0.0006444
2 6100_2 0
3 6100_3 8.136e-05
*RES
1 *6101:Y 6100_1 7.7
2 6100_1 6100_2 0
3 6100_2 *6102:B 0
4 6100_1 6100_3 1.26
5 6100_3 *6103:A 0
*END
*D_NET *6104 0.0012468
*CONN
*I *6105:Y O *D _3327
*I *6106:A I *L 0
*I *6107:A I *L 0
*CAP
1 6104_1 0.0011604
2 6104_2 8.64e-05
*RES
1 *6105:Y 6104_1 14.7
2 6104_1 *6106:A 0
3 6104_1 6104_2 0.56
4 6104_2 *6107:A 0
*END
*D_NET *6108 0.00021
*CONN
*I *6109:Y O *D _3329
*I *6110:B I *L 0
*I *6111:A I *L 0
*CAP
1 6108_1 8.112e-05
2 6108_2 4.08e-05
3 6108_3 8.808e-05
*RES
1 *6109:Y 6108_1 1.58667
2 6108_1 6108_2 0.466667
3 6108_2 *6110:B 0
4 6108_1 6108_3 1.44667
5 6108_3 *6111:A 0
*END
*D_NET *6112 0.000204
*CONN
*I *6113:Q O *D _4118
*I *6114:A I *L 0
*I *6115:A I *L 0
*CAP
1 6112_1 7.44e-05
2 6112_2 0.0001296
*RES
1 *6113:Q 6112_1 1.4
2 6112_1 *6114:A 0
3 6112_1 6112_2 0.84
4 6112_2 *6115:A 0
*END
*D_NET *6116 0.00012168
*CONN
*I *6117:Y O *D _3335
*I *6118:B I *L 0
*I *6119:A I *L 0
*CAP
1 6116_1 2.688e-05
2 6116_2 0
3 6116_3 9.48e-05
*RES
1 *6117:Y 6116_1 0.746667
2 6116_1 6116_2 0
3 6116_2 *6118:B 0
4 6116_1 6116_3 1.63333
5 6116_3 *6119:A 0
*END
*D_NET *6120 0.00115464
*CONN
*I *6121:Y O *D _3336
*I *6122:A I *L 0
*I *6123:A I *L 0
*CAP
1 6120_1 9.48e-05
2 6120_2 0.0001416
3 6120_3 0.00091824
*RES
1 *6121:Y 6120_1 0.793333
2 6120_1 6120_2 3.26667
3 6120_2 *6122:A 0
4 6120_1 6120_3 19.5067
5 6120_3 *6123:A 0
*END
*D_NET *6124 0.00036696
*CONN
*I *6125:Y O *D _3338
*I *6126:B I *L 0
*I *6127:A I *L 0
*CAP
1 6124_1 0.00023736
2 6124_2 0.0001296
*RES
1 *6125:Y 6124_1 3.59333
2 6124_1 *6126:B 0
3 6124_1 6124_2 0.84
4 6124_2 *6127:A 0
*END
*D_NET *6128 0.00030432
*CONN
*I *6129:Q O *D _4119
*I *6130:A I *L 0
*I *6131:A I *L 0
*CAP
1 6128_1 0
2 6128_2 8.064e-05
3 6128_3 0.00022368
*RES
1 *6129:Q 6128_1 0
2 6128_1 6128_2 2.24
3 6128_2 *6130:A 0
4 6128_1 6128_3 3.54667
5 6128_3 *6131:A 0
*END
*D_NET *6132 0.00015552
*CONN
*I *6133:Y O *D _3344
*I *6134:B I *L 0
*I *6135:A I *L 0
*CAP
1 6132_1 9.792e-05
2 6132_2 5.76e-05
*RES
1 *6133:Y 6132_1 1.49333
2 6132_1 *6134:B 0
3 6132_1 6132_2 0.373333
4 6132_2 *6135:A 0
*END
*D_NET *6136 0.00042432
*CONN
*I *6137:Y O *D _3345
*I *6138:A I *L 0
*I *6139:A I *L 0
*CAP
1 6136_1 0.00010176
2 6136_2 0.0001224
3 6136_3 0.00020016
*RES
1 *6137:Y 6136_1 1.49333
2 6136_1 6136_2 1.4
3 6136_2 *6138:A 0
4 6136_1 6136_3 2.33333
5 6136_3 *6139:A 0
*END
*D_NET *6140 0.00038376
*CONN
*I *6141:Y O *D _3347
*I *6142:A I *L 0
*I *6143:B I *L 0
*CAP
1 6140_1 0.00027216
2 6140_2 0
3 6140_3 0.0001116
*RES
1 *6141:Y 6140_1 7.56
2 6140_1 6140_2 0
3 6140_2 *6142:A 0
4 6140_1 6140_3 2.1
5 6140_3 *6143:B 0
*END
*D_NET *6144 0.00034488
*CONN
*I *6145:Q O *D _4120
*I *6146:A I *L 0
*I *6147:A I *L 0
*CAP
1 6144_1 2.04e-05
2 6144_2 0.000102
3 6144_3 0.00022248
*RES
1 *6145:Q 6144_1 0.233333
2 6144_1 6144_2 1.16667
3 6144_2 *6146:A 0
4 6144_1 6144_3 5.18
5 6144_3 *6147:A 0
*END
*D_NET *6148 0.00010824
*CONN
*I *6149:Y O *D _3353
*I *6150:A I *L 0
*I *6151:B I *L 0
*CAP
1 6148_1 2.688e-05
2 6148_2 6.12e-05
3 6148_3 2.016e-05
*RES
1 *6149:Y 6148_1 0.746667
2 6148_1 6148_2 0.7
3 6148_2 *6150:A 0
4 6148_1 6148_3 0.56
5 6148_3 *6151:B 0
*END
*D_NET *6152 0.0020568
*CONN
*I *6153:Y O *D _3354
*I *6154:A I *L 0
*I *6155:A I *L 0
*CAP
1 6152_1 0.0019992
2 6152_2 5.76e-05
*RES
1 *6153:Y 6152_1 14.8
2 6152_1 *6154:A 0
3 6152_1 6152_2 0.373333
4 6152_2 *6155:A 0
*END
*D_NET *6156 0.00063408
*CONN
*I *6157:Y O *D _3356
*I *6158:A I *L 0
*I *6159:B I *L 0
*CAP
1 6156_1 0.0005664
2 6156_2 0
3 6156_3 6.768e-05
*RES
1 *6157:Y 6156_1 4.66667
2 6156_1 6156_2 0
3 6156_2 *6158:A 0
4 6156_1 6156_3 1.21333
5 6156_3 *6159:B 0
*END
*D_NET *6160 0.00461256
*CONN
*I *6161:Q O *D _4121
*I *6162:A I *L 0
*I *6163:A I *L 0
*CAP
1 6160_1 0.00025344
2 6160_2 2.04e-05
3 6160_3 0.00433872
*RES
1 *6161:Q 6160_1 2.61333
2 6160_1 6160_2 0.233333
3 6160_2 *6162:A 0
4 6160_2 6160_3 55.32
5 6160_3 *6163:A 0
*END
*D_NET *6164 0.00431088
*CONN
*I *6165:Y O *D _3362
*I *6166:B I *L 0
*I *6167:A I *L 0
*CAP
1 6164_1 0.00157968
2 6164_2 4.08e-05
3 6164_3 0.0026904
*RES
1 *6165:Y 6164_1 17.68
2 6164_1 6164_2 0.466667
3 6164_2 *6166:B 0
4 6164_1 6164_3 29.0667
5 6164_3 *6167:A 0
*END
*D_NET *6168 0.00019968
*CONN
*I *6169:Y O *D _3363
*I *6170:A I *L 0
*I *6171:A I *L 0
*CAP
1 6168_1 2.016e-05
2 6168_2 9.84e-05
3 6168_3 8.112e-05
*RES
1 *6169:Y 6168_1 0.56
2 6168_1 6168_2 0.84
3 6168_2 *6170:A 0
4 6168_1 6168_3 1.58667
5 6168_3 *6171:A 0
*END
*D_NET *6172 0.00287472
*CONN
*I *6173:Y O *D _3365
*I *6174:A I *L 0
*I *6175:B I *L 0
*CAP
1 6172_1 0.00259728
2 6172_2 0.00027744
*RES
1 *6173:Y 6172_1 29.3467
2 6172_1 *6174:A 0
3 6172_1 6172_2 5.04
4 6172_2 *6175:B 0
*END
*D_NET *6176 0.0004788
*CONN
*I *6177:Q O *D _4122
*I *6178:A I *L 0
*I *6179:A I *L 0
*CAP
1 6176_1 0.00026928
2 6176_2 0.00020952
*RES
1 *6177:Q 6176_1 3.08
2 6176_1 *6178:A 0
3 6176_1 6176_2 4.15333
4 6176_2 *6179:A 0
*END
*D_NET *6180 0.000186
*CONN
*I *6181:Y O *D _3371
*I *6182:B I *L 0
*I *6183:A I *L 0
*CAP
1 6180_1 0.00010464
2 6180_2 0
3 6180_3 8.136e-05
*RES
1 *6181:Y 6180_1 1.68
2 6180_1 6180_2 0
3 6180_2 *6182:B 0
4 6180_1 6180_3 1.26
5 6180_3 *6183:A 0
*END
*D_NET *6184 0.0003396
*CONN
*I *6185:Y O *D _3372
*I *6186:A I *L 0
*I *6187:A I *L 0
*CAP
1 6184_1 0.000282
2 6184_2 5.76e-05
*RES
1 *6185:Y 6184_1 2.94
2 6184_1 *6186:A 0
3 6184_1 6184_2 0.373333
4 6184_2 *6187:A 0
*END
*D_NET *6188 0.0004548
*CONN
*I *6189:Y O *D _3374
*I *6190:B I *L 0
*I *6191:A I *L 0
*CAP
1 6188_1 0.00041112
2 6188_2 0
3 6188_3 4.368e-05
*RES
1 *6189:Y 6188_1 9.75333
2 6188_1 6188_2 0
3 6188_2 *6190:B 0
4 6188_1 6188_3 1.21333
5 6188_3 *6191:A 0
*END
*D_NET *6192 0.00046176
*CONN
*I *6193:Q O *D _4123
*I *6194:A I *L 0
*I *6195:A I *L 0
*CAP
1 6192_1 0.00012096
2 6192_2 0.0001224
3 6192_3 0.0002184
*RES
1 *6193:Q 6192_1 3.36
2 6192_1 6192_2 1.4
3 6192_2 *6194:A 0
4 6192_1 6192_3 2.33333
5 6192_3 *6195:A 0
*END
*D_NET *6196 0.0003264
*CONN
*I *6197:Y O *D _3380
*I *6198:A I *L 0
*I *6199:B I *L 0
*CAP
1 6196_1 0.000252
2 6196_2 0
3 6196_3 7.44e-05
*RES
1 *6197:Y 6196_1 7
2 6196_1 6196_2 0
3 6196_2 *6198:A 0
4 6196_1 6196_3 1.4
5 6196_3 *6199:B 0
*END
*D_NET *6200 0.00081936
*CONN
*I *6201:Y O *D _3381
*I *6202:A I *L 0
*I *6203:A I *L 0
*CAP
1 6200_1 0.0001344
2 6200_2 8.112e-05
3 6200_3 0.00060384
*RES
1 *6201:Y 6200_1 3.73333
2 6200_1 6200_2 1.58667
3 6200_2 *6202:A 0
4 6200_1 6200_3 6.90667
5 6200_3 *6203:A 0
*END
*D_NET *6204 0.00027024
*CONN
*I *6205:Y O *D _3383
*I *6206:A I *L 0
*I *6207:B I *L 0
*CAP
1 6204_1 0.00021264
2 6204_2 5.76e-05
*RES
1 *6205:Y 6204_1 2.14667
2 6204_1 *6206:A 0
3 6204_1 6204_2 0.373333
4 6204_2 *6207:B 0
*END
*D_NET *6208 0.00045
*CONN
*I *6209:Y O *D _3396
*I *6210:B I *L 0
*I *6211:A I *L 0
*CAP
1 6208_1 0.0003312
2 6208_2 5.76e-05
3 6208_3 6.12e-05
*RES
1 *6209:Y 6208_1 3.36
2 6208_1 6208_2 0.373333
3 6208_2 *6210:B 0
4 6208_1 6208_3 0.7
5 6208_3 *6211:A 0
*END
*D_NET *6212 0.0004452
*CONN
*I *6213:Y O *D _3398
*I *6214:B I *L 0
*I *6215:A I *L 0
*CAP
1 6212_1 0.0003228
2 6212_2 0.0001224
*RES
1 *6213:Y 6212_1 3.40667
2 6212_1 *6214:B 0
3 6212_1 6212_2 1.4
4 6212_2 *6215:A 0
*END
*D_NET *6216 0.00048888
*CONN
*I *6217:Y O *D _3399
*I *6218:B I *L 0
*I *6219:C I *L 0
*CAP
1 6216_1 8.16e-05
2 6216_2 0.000306
3 6216_3 0.00010128
*RES
1 *6217:Y 6216_1 0.933333
2 6216_1 6216_2 3.5
3 6216_2 *6218:B 0
4 6216_1 6216_3 2.14667
5 6216_3 *6219:C 0
*END
*D_NET *6220 0.00020304
*CONN
*I *6221:Y O *D _3405
*I *6222:B I *L 0
*I *6223:B I *L 0
*CAP
1 6220_1 0.00014544
2 6220_2 5.76e-05
*RES
1 *6221:Y 6220_1 2.14667
2 6220_1 *6222:B 0
3 6220_1 6220_2 0.373333
4 6220_2 *6223:B 0
*END
*D_NET *6224 0.0003852
*CONN
*I *6225:Y O *D _3602
*I *6226:A I *L 0
*I *6227:B I *L 0
*CAP
1 6224_1 0.00021648
2 6224_2 0
3 6224_3 0.00016872
*RES
1 *6225:Y 6224_1 4.34667
2 6224_1 6224_2 0
3 6224_2 *6226:A 0
4 6224_1 6224_3 3.68667
5 6224_3 *6227:B 0
*END
*D_NET *6228 8.64e-05
*CONN
*I *6229:Q O *D _3961
*I *6230:A I *L 0
*CAP
1 6228_1 8.64e-05
*RES
1 *6229:Q 6228_1 0.56
2 6228_1 *6230:A 0
*END
*D_NET *6231 7.344e-05
*CONN
*I *6232:Y O *D _1855
*I *6233:B I *L 0
*CAP
1 6231_1 7.344e-05
*RES
1 *6232:Y 6231_1 0.84
2 6231_1 *6233:B 0
*END
*D_NET *6234 5.76e-05
*CONN
*I *6235:Y O *D _1859
*I *6236:B I *L 0
*CAP
1 6234_1 5.76e-05
*RES
1 *6235:Y 6234_1 0.373333
2 6234_1 *6236:B 0
*END
*D_NET *6237 0.00019584
*CONN
*I *6238:Y O *D _1865
*I *6239:C I *L 0
*CAP
1 6237_1 0.00019584
*RES
1 *6238:Y 6237_1 2.24
2 6237_1 *6239:C 0
*END
*D_NET *6240 8.64e-05
*CONN
*I *6241:Y O *D _1870
*I *6242:B I *L 0
*CAP
1 6240_1 8.64e-05
*RES
1 *6241:Y 6240_1 0.56
2 6240_1 *6242:B 0
*END
*D_NET *6243 0.0003744
*CONN
*I *6244:Y O *D _1872
*I *6245:C I *L 0
*CAP
1 6243_1 0.0003744
*RES
1 *6244:Y 6243_1 2.42667
2 6243_1 *6245:C 0
*END
*D_NET *6246 0.00053184
*CONN
*I *6247:Y O *D _1873
*I *6248:A I *L 0
*CAP
1 6246_1 0.00053184
*RES
1 *6247:Y 6246_1 9.17333
2 6246_1 *6248:A 0
*END
*D_NET *6249 8.64e-05
*CONN
*I *6250:Y O *D _1875
*I *6251:B I *L 0
*CAP
1 6249_1 8.64e-05
*RES
1 *6250:Y 6249_1 0.56
2 6249_1 *6251:B 0
*END
*D_NET *6252 0.00027576
*CONN
*I *6253:Y O *D _1877
*I *6254:C I *L 0
*CAP
1 6252_1 0.00027576
*RES
1 *6253:Y 6252_1 2.79333
2 6252_1 *6254:C 0
*END
*D_NET *6255 2.688e-05
*CONN
*I *6256:Y O *D _1879
*I *6257:B I *L 0
*CAP
1 6255_1 2.688e-05
*RES
1 *6256:Y 6255_1 0.746667
2 6255_1 *6257:B 0
*END
*D_NET *6258 8.808e-05
*CONN
*I *6259:Y O *D _1881
*I *6260:B I *L 0
*CAP
1 6258_1 8.808e-05
*RES
1 *6259:Y 6258_1 1.44667
2 6258_1 *6260:B 0
*END
*D_NET *6261 0.00014208
*CONN
*I *6262:Y O *D _1882
*I *6263:C I *L 0
*CAP
1 6261_1 0.00014208
*RES
1 *6262:Y 6261_1 1.49333
2 6261_1 *6263:C 0
*END
*D_NET *6264 3.36e-05
*CONN
*I *6265:Y O *D _1884
*I *6266:A I *L 0
*CAP
1 6264_1 3.36e-05
*RES
1 *6265:Y 6264_1 0.933333
2 6264_1 *6266:A 0
*END
*D_NET *6267 0.00026808
*CONN
*I *6268:Y O *D _1885
*I *6269:B I *L 0
*CAP
1 6267_1 0.00026808
*RES
1 *6268:Y 6267_1 3.22
2 6267_1 *6269:B 0
*END
*D_NET *6270 0.00040464
*CONN
*I *6271:Y O *D _1886
*I *6272:A I *L 0
*CAP
1 6270_1 0.00040464
*RES
1 *6271:Y 6270_1 9.24
2 6270_1 *6272:A 0
*END
*D_NET *6273 5.76e-05
*CONN
*I *6274:Y O *D _1887
*I *6275:A I *L 0
*CAP
1 6273_1 5.76e-05
*RES
1 *6274:Y 6273_1 0.373333
2 6273_1 *6275:A 0
*END
*D_NET *6276 0.0001584
*CONN
*I *6277:Y O *D _1890
*I *6278:C I *L 0
*CAP
1 6276_1 0.0001584
*RES
1 *6277:Y 6276_1 1.02667
2 6276_1 *6278:C 0
*END
*D_NET *6279 0.00050136
*CONN
*I *6280:Y O *D _1891
*I *6281:A I *L 0
*CAP
1 6279_1 0.00050136
*RES
1 *6280:Y 6279_1 8.26
2 6279_1 *6281:A 0
*END
*D_NET *6282 0.00013176
*CONN
*I *6283:Y O *D _1892
*I *6284:B I *L 0
*CAP
1 6282_1 0.00013176
*RES
1 *6283:Y 6282_1 2.66
2 6282_1 *6284:B 0
*END
*D_NET *6285 4.032e-05
*CONN
*I *6286:Y O *D _1893
*I *6287:A I *L 0
*CAP
1 6285_1 4.032e-05
*RES
1 *6286:Y 6285_1 1.12
2 6285_1 *6287:A 0
*END
*D_NET *6288 0.00043488
*CONN
*I *6289:Y O *D _1894
*I *6290:C I *L 0
*CAP
1 6288_1 0.00043488
*RES
1 *6289:Y 6288_1 5.41333
2 6288_1 *6290:C 0
*END
*D_NET *6291 0.00020376
*CONN
*I *6292:Y O *D _1895
*I *6293:B I *L 0
*CAP
1 6291_1 0.00020376
*RES
1 *6292:Y 6291_1 2.66
2 6291_1 *6293:B 0
*END
*D_NET *6294 0.00101568
*CONN
*I *6295:Y O *D _1896
*I *6296:A I *L 0
*CAP
1 6294_1 0.00101568
*RES
1 *6295:Y 6294_1 11.8133
2 6294_1 *6296:A 0
*END
*D_NET *6297 0.00034488
*CONN
*I *6298:Y O *D _1897
*I *6299:A I *L 0
*CAP
1 6297_1 0.00034488
*RES
1 *6298:Y 6297_1 6.58
2 6297_1 *6299:A 0
*END
*D_NET *6300 0.00042456
*CONN
*I *6301:Y O *D _1903
*I *6302:B I *L 0
*CAP
1 6300_1 0.00042456
*RES
1 *6301:Y 6300_1 4.9
2 6300_1 *6302:B 0
*END
*D_NET *6303 8.112e-05
*CONN
*I *6304:Y O *D _1907
*I *6305:A I *L 0
*CAP
1 6303_1 8.112e-05
*RES
1 *6304:Y 6303_1 1.58667
2 6303_1 *6305:A 0
*END
*D_NET *6306 0.00135192
*CONN
*I *6307:Y O *D _1908
*I *6308:A I *L 0
*CAP
1 6306_1 0.00135192
*RES
1 *6307:Y 6306_1 16.2867
2 6306_1 *6308:A 0
*END
*D_NET *6309 0.00047544
*CONN
*I *6310:Y O *D _1909
*I *6311:B I *L 0
*CAP
1 6309_1 0.00047544
*RES
1 *6310:Y 6309_1 6.20667
2 6309_1 *6311:B 0
*END
*D_NET *6312 0.00021096
*CONN
*I *6313:Y O *D _1910
*I *6314:A I *L 0
*CAP
1 6312_1 0.00021096
*RES
1 *6313:Y 6312_1 2.1
2 6312_1 *6314:A 0
*END
*D_NET *6315 0.00054816
*CONN
*I *6316:Y O *D _1911
*I *6317:A I *L 0
*CAP
1 6315_1 0.00054816
*RES
1 *6316:Y 6315_1 12.6267
2 6315_1 *6317:A 0
*END
*D_NET *6318 0.0005304
*CONN
*I *6319:Y O *D _1912
*I *6320:B I *L 0
*CAP
1 6318_1 0.0005304
*RES
1 *6319:Y 6318_1 6.06667
2 6318_1 *6320:B 0
*END
*D_NET *6321 0.00080064
*CONN
*I *6322:Y O *D _1913
*I *6323:A I *L 0
*CAP
1 6321_1 0.00080064
*RES
1 *6322:Y 6321_1 11.5733
2 6321_1 *6323:A 0
*END
*D_NET *6324 0.00040416
*CONN
*I *6325:Y O *D _1914
*I *6326:A I *L 0
*CAP
1 6324_1 0.00040416
*RES
1 *6325:Y 6324_1 9.89333
2 6324_1 *6326:A 0
*END
*D_NET *6327 0.0002376
*CONN
*I *6328:Y O *D _1915
*I *6329:B I *L 0
*CAP
1 6327_1 0.0002376
*RES
1 *6328:Y 6327_1 3.26667
2 6327_1 *6329:B 0
*END
*D_NET *6330 0.00029088
*CONN
*I *6331:Y O *D _1916
*I *6332:A I *L 0
*CAP
1 6330_1 0.00029088
*RES
1 *6331:Y 6330_1 5.41333
2 6330_1 *6332:A 0
*END
*D_NET *6333 0.00239304
*CONN
*I *6334:Y O *D _1917
*I *6335:A I *L 0
*CAP
1 6333_1 0.00239304
*RES
1 *6334:Y 6333_1 30.6733
2 6333_1 *6335:A 0
*END
*D_NET *6336 0.00023304
*CONN
*I *6337:Y O *D _1918
*I *6338:B I *L 0
*CAP
1 6336_1 0.00023304
*RES
1 *6337:Y 6336_1 2.38
2 6336_1 *6338:B 0
*END
*D_NET *6339 9.48e-05
*CONN
*I *6340:Y O *D _1919
*I *6341:A I *L 0
*CAP
1 6339_1 9.48e-05
*RES
1 *6340:Y 6339_1 1.63333
2 6339_1 *6341:A 0
*END
*D_NET *6342 0.0004548
*CONN
*I *6343:Y O *D _1920
*I *6344:A I *L 0
*CAP
1 6342_1 0.0004548
*RES
1 *6343:Y 6342_1 10.4067
2 6342_1 *6344:A 0
*END
*D_NET *6345 0.0001284
*CONN
*I *6346:Y O *D _1921
*I *6347:B I *L 0
*CAP
1 6345_1 0.0001284
*RES
1 *6346:Y 6345_1 2.56667
2 6345_1 *6347:B 0
*END
*D_NET *6348 0.00025032
*CONN
*I *6349:Y O *D _1922
*I *6350:A I *L 0
*CAP
1 6348_1 0.00025032
*RES
1 *6349:Y 6348_1 4.62
2 6348_1 *6350:A 0
*END
*D_NET *6351 0.00019008
*CONN
*I *6352:Y O *D _1923
*I *6353:A I *L 0
*CAP
1 6351_1 0.00019008
*RES
1 *6352:Y 6351_1 2.61333
2 6351_1 *6353:A 0
*END
*D_NET *6354 0.00016872
*CONN
*I *6355:Y O *D _1924
*I *6356:B I *L 0
*CAP
1 6354_1 0.00016872
*RES
1 *6355:Y 6354_1 3.68667
2 6354_1 *6356:B 0
*END
*D_NET *6357 0.00030912
*CONN
*I *6358:Y O *D _1925
*I *6359:A I *L 0
*CAP
1 6357_1 0.00030912
*RES
1 *6358:Y 6357_1 8.58667
2 6357_1 *6359:A 0
*END
*D_NET *6360 0.00116208
*CONN
*I *6361:Y O *D _1926
*I *6362:A I *L 0
*CAP
1 6360_1 0.00116208
*RES
1 *6361:Y 6360_1 10.28
2 6360_1 *6362:A 0
*END
*D_NET *6363 0.00024432
*CONN
*I *6364:Y O *D _1927
*I *6365:B I *L 0
*CAP
1 6363_1 0.00024432
*RES
1 *6364:Y 6363_1 3.45333
2 6363_1 *6365:B 0
*END
*D_NET *6366 2.688e-05
*CONN
*I *6367:Y O *D _1928
*I *6368:A I *L 0
*CAP
1 6366_1 2.688e-05
*RES
1 *6367:Y 6366_1 0.746667
2 6366_1 *6368:A 0
*END
*D_NET *6369 0.00258744
*CONN
*I *6370:Y O *D _1929
*I *6371:A I *L 0
*CAP
1 6369_1 0.00258744
*RES
1 *6370:Y 6369_1 38.34
2 6369_1 *6371:A 0
*END
*D_NET *6372 0.00154032
*CONN
*I *6373:Y O *D _1930
*I *6374:B I *L 0
*CAP
1 6372_1 0.00154032
*RES
1 *6373:Y 6372_1 18.3867
2 6372_1 *6374:B 0
*END
*D_NET *6375 0.00012864
*CONN
*I *6376:Y O *D _1931
*I *6377:A I *L 0
*CAP
1 6375_1 0.00012864
*RES
1 *6376:Y 6375_1 2.24
2 6375_1 *6377:A 0
*END
*D_NET *6378 0.00175464
*CONN
*I *6379:Y O *D _1932
*I *6380:A I *L 0
*CAP
1 6378_1 0.00175464
*RES
1 *6379:Y 6378_1 20.8067
2 6378_1 *6380:A 0
*END
*D_NET *6381 0.000804
*CONN
*I *6382:Y O *D _1933
*I *6383:B I *L 0
*CAP
1 6381_1 0.000804
*RES
1 *6382:Y 6381_1 14.4667
2 6381_1 *6383:B 0
*END
*D_NET *6384 0.0007188
*CONN
*I *6385:Y O *D _1934
*I *6386:A I *L 0
*CAP
1 6384_1 0.0007188
*RES
1 *6385:Y 6384_1 7.03333
2 6384_1 *6386:A 0
*END
*D_NET *6387 0.00120264
*CONN
*I *6388:Y O *D _1935
*I *6389:A I *L 0
*CAP
1 6387_1 0.00120264
*RES
1 *6388:Y 6387_1 10.34
2 6387_1 *6389:A 0
*END
*D_NET *6390 0.00044832
*CONN
*I *6391:Y O *D _1936
*I *6392:B I *L 0
*CAP
1 6390_1 0.00044832
*RES
1 *6391:Y 6390_1 5.78667
2 6390_1 *6392:B 0
*END
*D_NET *6393 0.00033216
*CONN
*I *6394:Y O *D _1937
*I *6395:A I *L 0
*CAP
1 6393_1 0.00033216
*RES
1 *6394:Y 6393_1 5.22667
2 6393_1 *6395:A 0
*END
*D_NET *6396 0.0003804
*CONN
*I *6397:Y O *D _1938
*I *6398:A I *L 0
*CAP
1 6396_1 0.0003804
*RES
1 *6397:Y 6396_1 9.56667
2 6396_1 *6398:A 0
*END
*D_NET *6399 0.0002952
*CONN
*I *6400:Y O *D _1939
*I *6401:B I *L 0
*CAP
1 6399_1 0.0002952
*RES
1 *6400:Y 6399_1 3.64
2 6399_1 *6401:B 0
*END
*D_NET *6402 0.00014496
*CONN
*I *6403:Y O *D _1940
*I *6404:A I *L 0
*CAP
1 6402_1 0.00014496
*RES
1 *6403:Y 6402_1 2.8
2 6402_1 *6404:A 0
*END
*D_NET *6405 0.00161376
*CONN
*I *6406:Y O *D _1941
*I *6407:A I *L 0
*CAP
1 6405_1 0.00161376
*RES
1 *6406:Y 6405_1 19.0267
2 6405_1 *6407:A 0
*END
*D_NET *6408 0.00035784
*CONN
*I *6409:Y O *D _1942
*I *6410:B I *L 0
*CAP
1 6408_1 0.00035784
*RES
1 *6409:Y 6408_1 3.40667
2 6408_1 *6410:B 0
*END
*D_NET *6411 0.00020952
*CONN
*I *6412:Y O *D _1943
*I *6413:A I *L 0
*CAP
1 6411_1 0.00020952
*RES
1 *6412:Y 6411_1 4.15333
2 6411_1 *6413:A 0
*END
*D_NET *6414 0.00031464
*CONN
*I *6415:Y O *D _1944
*I *6416:A I *L 0
*CAP
1 6414_1 0.00031464
*RES
1 *6415:Y 6414_1 3.47333
2 6414_1 *6416:A 0
*END
*D_NET *6417 0.00073224
*CONN
*I *6418:Y O *D _1945
*I *6419:B I *L 0
*CAP
1 6417_1 0.00073224
*RES
1 *6418:Y 6417_1 11.34
2 6417_1 *6419:B 0
*END
*D_NET *6420 0.00088128
*CONN
*I *6421:Y O *D _1946
*I *6422:A I *L 0
*CAP
1 6420_1 0.00088128
*RES
1 *6421:Y 6420_1 15.3467
2 6420_1 *6422:A 0
*END
*D_NET *6423 0.00288312
*CONN
*I *6424:Y O *D _1947
*I *6425:A I *L 0
*CAP
1 6423_1 0.00288312
*RES
1 *6424:Y 6423_1 35.3933
2 6423_1 *6425:A 0
*END
*D_NET *6426 0.00015984
*CONN
*I *6427:Y O *D _1948
*I *6428:B I *L 0
*CAP
1 6426_1 0.00015984
*RES
1 *6427:Y 6426_1 1.4
2 6426_1 *6428:B 0
*END
*D_NET *6429 0.0002292
*CONN
*I *6430:Y O *D _1949
*I *6431:A I *L 0
*CAP
1 6429_1 0.0002292
*RES
1 *6430:Y 6429_1 5.36667
2 6429_1 *6431:A 0
*END
*D_NET *6432 0.00087936
*CONN
*I *6433:Y O *D _1950
*I *6434:A I *L 0
*CAP
1 6432_1 0.00087936
*RES
1 *6433:Y 6432_1 10.4933
2 6432_1 *6434:A 0
*END
*D_NET *6435 4.032e-05
*CONN
*I *6436:Y O *D _1951
*I *6437:B I *L 0
*CAP
1 6435_1 4.032e-05
*RES
1 *6436:Y 6435_1 1.12
2 6435_1 *6437:B 0
*END
*D_NET *6438 6.768e-05
*CONN
*I *6439:Y O *D _1952
*I *6440:A I *L 0
*CAP
1 6438_1 6.768e-05
*RES
1 *6439:Y 6438_1 1.21333
2 6438_1 *6440:A 0
*END
*D_NET *6441 0.00101352
*CONN
*I *6442:Y O *D _1953
*I *6443:A I *L 0
*CAP
1 6441_1 0.00101352
*RES
1 *6442:Y 6441_1 9.62
2 6441_1 *6443:A 0
*END
*D_NET *6444 0.00064272
*CONN
*I *6445:Y O *D _1954
*I *6446:B I *L 0
*CAP
1 6444_1 0.00064272
*RES
1 *6445:Y 6444_1 11.8533
2 6444_1 *6446:B 0
*END
*D_NET *6447 0.0008448
*CONN
*I *6448:Y O *D _1955
*I *6449:A I *L 0
*CAP
1 6447_1 0.0008448
*RES
1 *6448:Y 6447_1 10.2667
2 6447_1 *6449:A 0
*END
*D_NET *6450 0.00103224
*CONN
*I *6451:Y O *D _1956
*I *6452:A I *L 0
*CAP
1 6450_1 0.00103224
*RES
1 *6451:Y 6450_1 23.0067
2 6450_1 *6452:A 0
*END
*D_NET *6453 0.0005064
*CONN
*I *6454:Y O *D _1957
*I *6455:B I *L 0
*CAP
1 6453_1 0.0005064
*RES
1 *6454:Y 6453_1 5.13333
2 6453_1 *6455:B 0
*END
*D_NET *6456 0.00077688
*CONN
*I *6457:Y O *D _1958
*I *6458:A I *L 0
*CAP
1 6456_1 0.00077688
*RES
1 *6457:Y 6456_1 8.91333
2 6456_1 *6458:A 0
*END
*D_NET *6459 0.00036
*CONN
*I *6460:Y O *D _1959
*I *6461:A I *L 0
*CAP
1 6459_1 0.00036
*RES
1 *6460:Y 6459_1 9.33333
2 6459_1 *6461:A 0
*END
*D_NET *6462 0.00025104
*CONN
*I *6463:Y O *D _1960
*I *6464:B I *L 0
*CAP
1 6462_1 0.00025104
*RES
1 *6463:Y 6462_1 3.64
2 6462_1 *6464:B 0
*END
*D_NET *6465 0.00046104
*CONN
*I *6466:Y O *D _1961
*I *6467:A I *L 0
*CAP
1 6465_1 0.00046104
*RES
1 *6466:Y 6465_1 5.60667
2 6465_1 *6467:A 0
*END
*D_NET *6468 0.00054672
*CONN
*I *6469:Y O *D _1962
*I *6470:A I *L 0
*CAP
1 6468_1 0.00054672
*RES
1 *6469:Y 6468_1 11.8533
2 6468_1 *6470:A 0
*END
*D_NET *6471 0.00016968
*CONN
*I *6472:Y O *D _1963
*I *6473:B I *L 0
*CAP
1 6471_1 0.00016968
*RES
1 *6472:Y 6471_1 2.38
2 6471_1 *6473:B 0
*END
*D_NET *6474 0.00049512
*CONN
*I *6475:Y O *D _1964
*I *6476:A I *L 0
*CAP
1 6474_1 0.00049512
*RES
1 *6475:Y 6474_1 7.42
2 6474_1 *6476:A 0
*END
*D_NET *6477 9.48e-05
*CONN
*I *6478:Y O *D _1965
*I *6479:A I *L 0
*CAP
1 6477_1 9.48e-05
*RES
1 *6478:Y 6477_1 1.63333
2 6477_1 *6479:A 0
*END
*D_NET *6480 0.00074256
*CONN
*I *6481:Y O *D _1966
*I *6482:B I *L 0
*CAP
1 6480_1 0.00074256
*RES
1 *6481:Y 6480_1 8.96
2 6480_1 *6482:B 0
*END
*D_NET *6483 0.00024672
*CONN
*I *6484:Y O *D _1967
*I *6485:A I *L 0
*CAP
1 6483_1 0.00024672
*RES
1 *6484:Y 6483_1 3.92
2 6483_1 *6485:A 0
*END
*D_NET *6486 0.00075792
*CONN
*I *6487:Y O *D _1968
*I *6488:A I *L 0
*CAP
1 6486_1 0.00075792
*RES
1 *6487:Y 6486_1 6.98667
2 6486_1 *6488:A 0
*END
*D_NET *6489 0.00027744
*CONN
*I *6490:Y O *D _1969
*I *6491:B I *L 0
*CAP
1 6489_1 0.00027744
*RES
1 *6490:Y 6489_1 5.04
2 6489_1 *6491:B 0
*END
*D_NET *6492 6.096e-05
*CONN
*I *6493:Y O *D _1970
*I *6494:A I *L 0
*CAP
1 6492_1 6.096e-05
*RES
1 *6493:Y 6492_1 1.02667
2 6492_1 *6494:A 0
*END
*D_NET *6495 0.0017604
*CONN
*I *6496:Y O *D _1971
*I *6497:A I *L 0
*CAP
1 6495_1 0.0017604
*RES
1 *6496:Y 6495_1 19.1667
2 6495_1 *6497:A 0
*END
*D_NET *6498 0.00028872
*CONN
*I *6499:Y O *D _1972
*I *6500:B I *L 0
*CAP
1 6498_1 0.00028872
*RES
1 *6499:Y 6498_1 4.88667
2 6498_1 *6500:B 0
*END
*D_NET *6501 0.00025656
*CONN
*I *6502:Y O *D _1973
*I *6503:A I *L 0
*CAP
1 6501_1 0.00025656
*RES
1 *6502:Y 6501_1 3.59333
2 6501_1 *6503:A 0
*END
*D_NET *6504 0.0005856
*CONN
*I *6505:Y O *D _1974
*I *6506:A I *L 0
*CAP
1 6504_1 0.0005856
*RES
1 *6505:Y 6504_1 7.84
2 6504_1 *6506:A 0
*END
*D_NET *6507 0.00018216
*CONN
*I *6508:Y O *D _1975
*I *6509:B I *L 0
*CAP
1 6507_1 0.00018216
*RES
1 *6508:Y 6507_1 4.06
2 6507_1 *6509:B 0
*END
*D_NET *6510 0.00053568
*CONN
*I *6511:Y O *D _1976
*I *6512:A I *L 0
*CAP
1 6510_1 0.00053568
*RES
1 *6511:Y 6510_1 8.21333
2 6510_1 *6512:A 0
*END
*D_NET *6513 0.00127848
*CONN
*I *6514:Y O *D _1977
*I *6515:A I *L 0
*CAP
1 6513_1 0.00127848
*RES
1 *6514:Y 6513_1 16.1533
2 6513_1 *6515:A 0
*END
*D_NET *6516 0.00111432
*CONN
*I *6517:Y O *D _1978
*I *6518:B I *L 0
*CAP
1 6516_1 0.00111432
*RES
1 *6517:Y 6516_1 23.2867
2 6516_1 *6518:B 0
*END
*D_NET *6519 8.112e-05
*CONN
*I *6520:Y O *D _1979
*I *6521:A I *L 0
*CAP
1 6519_1 8.112e-05
*RES
1 *6520:Y 6519_1 1.58667
2 6519_1 *6521:A 0
*END
*D_NET *6522 0.00050472
*CONN
*I *6523:Y O *D _1980
*I *6524:A I *L 0
*CAP
1 6522_1 0.00050472
*RES
1 *6523:Y 6522_1 9.84667
2 6522_1 *6524:A 0
*END
*D_NET *6525 0.00081216
*CONN
*I *6526:Y O *D _1981
*I *6527:B I *L 0
*CAP
1 6525_1 0.00081216
*RES
1 *6526:Y 6525_1 9.29333
2 6525_1 *6527:B 0
*END
*D_NET *6528 6.096e-05
*CONN
*I *6529:Y O *D _1982
*I *6530:A I *L 0
*CAP
1 6528_1 6.096e-05
*RES
1 *6529:Y 6528_1 1.02667
2 6528_1 *6530:A 0
*END
*D_NET *6531 0.00035712
*CONN
*I *6532:Y O *D _1983
*I *6533:A I *L 0
*CAP
1 6531_1 0.00035712
*RES
1 *6532:Y 6531_1 8.58667
2 6531_1 *6533:A 0
*END
*D_NET *6534 0.00070512
*CONN
*I *6535:Y O *D _1984
*I *6536:B I *L 0
*CAP
1 6534_1 0.00070512
*RES
1 *6535:Y 6534_1 10.92
2 6534_1 *6536:B 0
*END
*D_NET *6537 6.096e-05
*CONN
*I *6538:Y O *D _1985
*I *6539:A I *L 0
*CAP
1 6537_1 6.096e-05
*RES
1 *6538:Y 6537_1 1.02667
2 6537_1 *6539:A 0
*END
*D_NET *6540 0.00050592
*CONN
*I *6541:Y O *D _1986
*I *6542:A I *L 0
*CAP
1 6540_1 0.00050592
*RES
1 *6541:Y 6540_1 11.72
2 6540_1 *6542:A 0
*END
*D_NET *6543 0.00030792
*CONN
*I *6544:Y O *D _1987
*I *6545:B I *L 0
*CAP
1 6543_1 0.00030792
*RES
1 *6544:Y 6543_1 4.99333
2 6543_1 *6545:B 0
*END
*D_NET *6546 0.000336
*CONN
*I *6547:Y O *D _1988
*I *6548:A I *L 0
*CAP
1 6546_1 0.000336
*RES
1 *6547:Y 6546_1 2.98667
2 6546_1 *6548:A 0
*END
*D_NET *6549 0.00011136
*CONN
*I *6550:Y O *D _1989
*I *6551:A I *L 0
*CAP
1 6549_1 0.00011136
*RES
1 *6550:Y 6549_1 1.86667
2 6549_1 *6551:A 0
*END
*D_NET *6552 0.00090648
*CONN
*I *6553:Y O *D _1990
*I *6554:B I *L 0
*CAP
1 6552_1 0.00090648
*RES
1 *6553:Y 6552_1 12.9133
2 6552_1 *6554:B 0
*END
*D_NET *6555 8.112e-05
*CONN
*I *6556:Y O *D _1991
*I *6557:A I *L 0
*CAP
1 6555_1 8.112e-05
*RES
1 *6556:Y 6555_1 1.58667
2 6555_1 *6557:A 0
*END
*D_NET *6558 0.00134424
*CONN
*I *6559:Y O *D _1992
*I *6560:A I *L 0
*CAP
1 6558_1 0.00134424
*RES
1 *6559:Y 6558_1 16.4733
2 6558_1 *6560:A 0
*END
*D_NET *6561 0.00021648
*CONN
*I *6562:Y O *D _1993
*I *6563:B I *L 0
*CAP
1 6561_1 0.00021648
*RES
1 *6562:Y 6561_1 4.01333
2 6561_1 *6563:B 0
*END
*D_NET *6564 0.0002304
*CONN
*I *6565:Y O *D _1994
*I *6566:A I *L 0
*CAP
1 6564_1 0.0002304
*RES
1 *6565:Y 6564_1 3.73333
2 6564_1 *6566:A 0
*END
*D_NET *6567 0.0012168
*CONN
*I *6568:Y O *D _1995
*I *6569:A I *L 0
*CAP
1 6567_1 0.0012168
*RES
1 *6568:Y 6567_1 14.4667
2 6567_1 *6569:A 0
*END
*D_NET *6570 8.64e-05
*CONN
*I *6571:Y O *D _1996
*I *6572:B I *L 0
*CAP
1 6570_1 8.64e-05
*RES
1 *6571:Y 6570_1 0.56
2 6570_1 *6572:B 0
*END
*D_NET *6573 2.688e-05
*CONN
*P *6573 O
*I *6574:A I *L 0
*CAP
1 6573_1 2.688e-05
*RES
1 *6573 6573_1 0.746667
2 6573_1 *6574:A 0
*END
*D_NET *6575 5.76e-05
*CONN
*I *6576:Y O *D _1999
*I *6577:A I *L 0
*CAP
1 6575_1 5.76e-05
*RES
1 *6576:Y 6575_1 0.373333
2 6575_1 *6577:A 0
*END
*D_NET *6578 0.00016968
*CONN
*I *6579:Y O *D _2000
*I *6580:D I *L 0
*CAP
1 6578_1 0.00016968
*RES
1 *6579:Y 6578_1 2.38
2 6578_1 *6580:D 0
*END
*D_NET *6581 0.00013872
*CONN
*I *6582:Y O *D _2002
*I *6583:A I *L 0
*CAP
1 6581_1 0.00013872
*RES
1 *6582:Y 6581_1 1.96
2 6581_1 *6583:A 0
*END
*D_NET *6584 0.00040752
*CONN
*I *6585:Y O *D _2004
*I *6586:B I *L 0
*CAP
1 6584_1 0.00040752
*RES
1 *6585:Y 6584_1 5.32
2 6584_1 *6586:B 0
*END
*D_NET *6587 0.0001584
*CONN
*I *6588:Y O *D _2007
*I *6589:C I *L 0
*CAP
1 6587_1 0.0001584
*RES
1 *6588:Y 6587_1 1.02667
2 6587_1 *6589:C 0
*END
*D_NET *6590 0.00028536
*CONN
*I *6591:Y O *D _2008
*I *6592:D I *L 0
*CAP
1 6590_1 0.00028536
*RES
1 *6591:Y 6590_1 5.46
2 6590_1 *6592:D 0
*END
*D_NET *6593 0.0001584
*CONN
*I *6594:Y O *D _2010
*I *6595:C I *L 0
*CAP
1 6593_1 0.0001584
*RES
1 *6594:Y 6593_1 1.02667
2 6593_1 *6595:C 0
*END
*D_NET *6596 0.00021888
*CONN
*I *6597:Y O *D _2011
*I *6598:D I *L 0
*CAP
1 6596_1 0.00021888
*RES
1 *6597:Y 6596_1 4.85333
2 6596_1 *6598:D 0
*END
*D_NET *6599 0.00028752
*CONN
*I *6600:Y O *D _2013
*I *6601:C I *L 0
*CAP
1 6599_1 0.00028752
*RES
1 *6600:Y 6599_1 5.32
2 6599_1 *6601:C 0
*END
*D_NET *6602 0.00011424
*CONN
*I *6603:Y O *D _2014
*I *6604:D I *L 0
*CAP
1 6602_1 0.00011424
*RES
1 *6603:Y 6602_1 3.17333
2 6602_1 *6604:D 0
*END
*D_NET *6605 0.00030168
*CONN
*I *6606:Y O *D _2016
*I *6607:C I *L 0
*CAP
1 6605_1 0.00030168
*RES
1 *6606:Y 6605_1 4.15333
2 6605_1 *6607:C 0
*END
*D_NET *6608 0.0001992
*CONN
*I *6609:Y O *D _2017
*I *6610:D I *L 0
*CAP
1 6608_1 0.0001992
*RES
1 *6609:Y 6608_1 3.64
2 6608_1 *6610:D 0
*END
*D_NET *6611 0.00011472
*CONN
*I *6612:Y O *D _2019
*I *6613:C I *L 0
*CAP
1 6611_1 0.00011472
*RES
1 *6612:Y 6611_1 2.52
2 6611_1 *6613:C 0
*END
*D_NET *6614 0.00079152
*CONN
*I *6615:Y O *D _2020
*I *6616:D I *L 0
*CAP
1 6614_1 0.00079152
*RES
1 *6615:Y 6614_1 8.98667
2 6614_1 *6616:D 0
*END
*D_NET *6617 0.0001584
*CONN
*I *6618:Y O *D _2022
*I *6619:C I *L 0
*CAP
1 6617_1 0.0001584
*RES
1 *6618:Y 6617_1 1.02667
2 6617_1 *6619:C 0
*END
*D_NET *6620 0.0001752
*CONN
*I *6621:Y O *D _2023
*I *6622:D I *L 0
*CAP
1 6620_1 0.0001752
*RES
1 *6621:Y 6620_1 4.2
2 6620_1 *6622:D 0
*END
*D_NET *6623 0.0001584
*CONN
*I *6624:Y O *D _2025
*I *6625:C I *L 0
*CAP
1 6623_1 0.0001584
*RES
1 *6624:Y 6623_1 1.02667
2 6623_1 *6625:C 0
*END
*D_NET *6626 0.0002532
*CONN
*I *6627:Y O *D _2026
*I *6628:D I *L 0
*CAP
1 6626_1 0.0002532
*RES
1 *6627:Y 6626_1 5.36667
2 6626_1 *6628:D 0
*END
*D_NET *6629 0.0001524
*CONN
*I *6630:Y O *D _2028
*I *6631:C I *L 0
*CAP
1 6629_1 0.0001524
*RES
1 *6630:Y 6629_1 2.00667
2 6629_1 *6631:C 0
*END
*D_NET *6632 0.00016176
*CONN
*I *6633:Y O *D _2029
*I *6634:D I *L 0
*CAP
1 6632_1 0.00016176
*RES
1 *6633:Y 6632_1 3.82667
2 6632_1 *6634:D 0
*END
*D_NET *6635 0.0001584
*CONN
*I *6636:Y O *D _2031
*I *6637:C I *L 0
*CAP
1 6635_1 0.0001584
*RES
1 *6636:Y 6635_1 1.02667
2 6635_1 *6637:C 0
*END
*D_NET *6638 0.00021984
*CONN
*I *6639:Y O *D _2032
*I *6640:D I *L 0
*CAP
1 6638_1 0.00021984
*RES
1 *6639:Y 6638_1 3.54667
2 6638_1 *6640:D 0
*END
*D_NET *6641 0.0001584
*CONN
*I *6642:Y O *D _2034
*I *6643:C I *L 0
*CAP
1 6641_1 0.0001584
*RES
1 *6642:Y 6641_1 1.02667
2 6641_1 *6643:C 0
*END
*D_NET *6644 0.00029856
*CONN
*I *6645:Y O *D _2035
*I *6646:D I *L 0
*CAP
1 6644_1 0.00029856
*RES
1 *6645:Y 6644_1 4.66667
2 6644_1 *6646:D 0
*END
*D_NET *6647 0.0001584
*CONN
*I *6648:Y O *D _2037
*I *6649:C I *L 0
*CAP
1 6647_1 0.0001584
*RES
1 *6648:Y 6647_1 1.02667
2 6647_1 *6649:C 0
*END
*D_NET *6650 0.00017184
*CONN
*I *6651:Y O *D _2038
*I *6652:D I *L 0
*CAP
1 6650_1 0.00017184
*RES
1 *6651:Y 6650_1 3.54667
2 6650_1 *6652:D 0
*END
*D_NET *6653 0.0001584
*CONN
*I *6654:Y O *D _2040
*I *6655:C I *L 0
*CAP
1 6653_1 0.0001584
*RES
1 *6654:Y 6653_1 1.02667
2 6653_1 *6655:C 0
*END
*D_NET *6656 0.00049296
*CONN
*I *6657:Y O *D _2041
*I *6658:D I *L 0
*CAP
1 6656_1 0.00049296
*RES
1 *6657:Y 6656_1 10.36
2 6656_1 *6658:D 0
*END
*D_NET *6659 0.0001584
*CONN
*I *6660:Y O *D _2043
*I *6661:C I *L 0
*CAP
1 6659_1 0.0001584
*RES
1 *6660:Y 6659_1 1.02667
2 6659_1 *6661:C 0
*END
*D_NET *6662 0.00021648
*CONN
*I *6663:Y O *D _2044
*I *6664:D I *L 0
*CAP
1 6662_1 0.00021648
*RES
1 *6663:Y 6662_1 4.01333
2 6662_1 *6664:D 0
*END
*D_NET *6665 0.0001584
*CONN
*I *6666:Y O *D _2046
*I *6667:C I *L 0
*CAP
1 6665_1 0.0001584
*RES
1 *6666:Y 6665_1 1.02667
2 6665_1 *6667:C 0
*END
*D_NET *6668 0.0002856
*CONN
*I *6669:Y O *D _2047
*I *6670:D I *L 0
*CAP
1 6668_1 0.0002856
*RES
1 *6669:Y 6668_1 3.26667
2 6668_1 *6670:D 0
*END
*D_NET *6671 0.0001584
*CONN
*I *6672:Y O *D _2049
*I *6673:C I *L 0
*CAP
1 6671_1 0.0001584
*RES
1 *6672:Y 6671_1 1.02667
2 6671_1 *6673:C 0
*END
*D_NET *6674 0.00017184
*CONN
*I *6675:Y O *D _2050
*I *6676:D I *L 0
*CAP
1 6674_1 0.00017184
*RES
1 *6675:Y 6674_1 3.54667
2 6674_1 *6676:D 0
*END
*D_NET *6677 0.0001428
*CONN
*I *6678:Y O *D _2052
*I *6679:C I *L 0
*CAP
1 6677_1 0.0001428
*RES
1 *6678:Y 6677_1 1.63333
2 6677_1 *6679:C 0
*END
*D_NET *6680 6.72e-05
*CONN
*I *6681:Y O *D _2053
*I *6682:D I *L 0
*CAP
1 6680_1 6.72e-05
*RES
1 *6681:Y 6680_1 1.86667
2 6680_1 *6682:D 0
*END
*D_NET *6683 0.00030408
*CONN
*I *6684:Y O *D _2055
*I *6685:C I *L 0
*CAP
1 6683_1 0.00030408
*RES
1 *6684:Y 6683_1 6.11333
2 6683_1 *6685:C 0
*END
*D_NET *6686 0.00026688
*CONN
*I *6687:Y O *D _2056
*I *6688:D I *L 0
*CAP
1 6686_1 0.00026688
*RES
1 *6687:Y 6686_1 3.73333
2 6686_1 *6688:D 0
*END
*D_NET *6689 0.0001584
*CONN
*I *6690:Y O *D _2058
*I *6691:C I *L 0
*CAP
1 6689_1 0.0001584
*RES
1 *6690:Y 6689_1 1.02667
2 6689_1 *6691:C 0
*END
*D_NET *6692 0.0001632
*CONN
*I *6693:Y O *D _2059
*I *6694:D I *L 0
*CAP
1 6692_1 0.0001632
*RES
1 *6693:Y 6692_1 2.53333
2 6692_1 *6694:D 0
*END
*D_NET *6695 0.0001584
*CONN
*I *6696:Y O *D _2061
*I *6697:C I *L 0
*CAP
1 6695_1 0.0001584
*RES
1 *6696:Y 6695_1 1.02667
2 6695_1 *6697:C 0
*END
*D_NET *6698 0.00017184
*CONN
*I *6699:Y O *D _2062
*I *6700:D I *L 0
*CAP
1 6698_1 0.00017184
*RES
1 *6699:Y 6698_1 3.54667
2 6698_1 *6700:D 0
*END
*D_NET *6701 0.0001584
*CONN
*I *6702:Y O *D _2064
*I *6703:C I *L 0
*CAP
1 6701_1 0.0001584
*RES
1 *6702:Y 6701_1 1.02667
2 6701_1 *6703:C 0
*END
*D_NET *6704 0.00023736
*CONN
*I *6705:Y O *D _2065
*I *6706:D I *L 0
*CAP
1 6704_1 0.00023736
*RES
1 *6705:Y 6704_1 3.59333
2 6704_1 *6706:D 0
*END
*D_NET *6707 0.0001584
*CONN
*I *6708:Y O *D _2067
*I *6709:C I *L 0
*CAP
1 6707_1 0.0001584
*RES
1 *6708:Y 6707_1 1.02667
2 6707_1 *6709:C 0
*END
*D_NET *6710 0.00030408
*CONN
*I *6711:Y O *D _2068
*I *6712:D I *L 0
*CAP
1 6710_1 0.00030408
*RES
1 *6711:Y 6710_1 6.11333
2 6710_1 *6712:D 0
*END
*D_NET *6713 0.0001584
*CONN
*I *6714:Y O *D _2070
*I *6715:C I *L 0
*CAP
1 6713_1 0.0001584
*RES
1 *6714:Y 6713_1 1.02667
2 6713_1 *6715:C 0
*END
*D_NET *6716 0.0002712
*CONN
*I *6717:Y O *D _2071
*I *6718:D I *L 0
*CAP
1 6716_1 0.0002712
*RES
1 *6717:Y 6716_1 4.2
2 6716_1 *6718:D 0
*END
*D_NET *6719 0.00019584
*CONN
*I *6720:Y O *D _2073
*I *6721:C I *L 0
*CAP
1 6719_1 0.00019584
*RES
1 *6720:Y 6719_1 2.24
2 6719_1 *6721:C 0
*END
*D_NET *6722 0.00026376
*CONN
*I *6723:Y O *D _2074
*I *6724:D I *L 0
*CAP
1 6722_1 0.00026376
*RES
1 *6723:Y 6722_1 4.99333
2 6722_1 *6724:D 0
*END
*D_NET *6725 8.64e-05
*CONN
*I *6726:Y O *D _2076
*I *6727:C I *L 0
*CAP
1 6725_1 8.64e-05
*RES
1 *6726:Y 6725_1 0.56
2 6725_1 *6727:C 0
*END
*D_NET *6728 0.00037296
*CONN
*I *6729:Y O *D _2077
*I *6730:D I *L 0
*CAP
1 6728_1 0.00037296
*RES
1 *6729:Y 6728_1 5.69333
2 6728_1 *6730:D 0
*END
*D_NET *6731 0.000282
*CONN
*I *6732:Y O *D _2079
*I *6733:C I *L 0
*CAP
1 6731_1 0.000282
*RES
1 *6732:Y 6731_1 2.94
2 6731_1 *6733:C 0
*END
*D_NET *6734 0.00046728
*CONN
*I *6735:Y O *D _2080
*I *6736:D I *L 0
*CAP
1 6734_1 0.00046728
*RES
1 *6735:Y 6734_1 5.51333
2 6734_1 *6736:D 0
*END
*D_NET *6737 0.0001584
*CONN
*I *6738:Y O *D _2082
*I *6739:C I *L 0
*CAP
1 6737_1 0.0001584
*RES
1 *6738:Y 6737_1 1.02667
2 6737_1 *6739:C 0
*END
*D_NET *6740 0.00017184
*CONN
*I *6741:Y O *D _2083
*I *6742:D I *L 0
*CAP
1 6740_1 0.00017184
*RES
1 *6741:Y 6740_1 3.54667
2 6740_1 *6742:D 0
*END
*D_NET *6743 8.112e-05
*CONN
*I *6744:Y O *D _2085
*I *6745:C I *L 0
*CAP
1 6743_1 8.112e-05
*RES
1 *6744:Y 6743_1 1.58667
2 6743_1 *6745:C 0
*END
*D_NET *6746 0.00016872
*CONN
*I *6747:Y O *D _2086
*I *6748:D I *L 0
*CAP
1 6746_1 0.00016872
*RES
1 *6747:Y 6746_1 3.68667
2 6746_1 *6748:D 0
*END
*D_NET *6749 8.64e-05
*CONN
*I *6750:Y O *D _2088
*I *6751:C I *L 0
*CAP
1 6749_1 8.64e-05
*RES
1 *6750:Y 6749_1 0.56
2 6749_1 *6751:C 0
*END
*D_NET *6752 0.00019584
*CONN
*I *6753:Y O *D _2089
*I *6754:D I *L 0
*CAP
1 6752_1 0.00019584
*RES
1 *6753:Y 6752_1 4.10667
2 6752_1 *6754:D 0
*END
*D_NET *6755 0.0001008
*CONN
*I *6756:Y O *D _2091
*I *6757:C I *L 0
*CAP
1 6755_1 0.0001008
*RES
1 *6756:Y 6755_1 2.8
2 6755_1 *6757:C 0
*END
*D_NET *6758 0.000156
*CONN
*I *6759:Y O *D _2092
*I *6760:D I *L 0
*CAP
1 6758_1 0.000156
*RES
1 *6759:Y 6758_1 2.33333
2 6758_1 *6760:D 0
*END
*D_NET *6761 0.0001584
*CONN
*I *6762:Y O *D _2094
*I *6763:C I *L 0
*CAP
1 6761_1 0.0001584
*RES
1 *6762:Y 6761_1 1.02667
2 6761_1 *6763:C 0
*END
*D_NET *6764 0.00016296
*CONN
*I *6765:Y O *D _2095
*I *6766:D I *L 0
*CAP
1 6764_1 0.00016296
*RES
1 *6765:Y 6764_1 2.19333
2 6764_1 *6766:D 0
*END
*D_NET *6767 8.64e-05
*CONN
*I *6768:Y O *D _2097
*I *6769:C I *L 0
*CAP
1 6767_1 8.64e-05
*RES
1 *6768:Y 6767_1 0.56
2 6767_1 *6769:C 0
*END
*D_NET *6770 0.00016968
*CONN
*I *6771:Y O *D _2098
*I *6772:D I *L 0
*CAP
1 6770_1 0.00016968
*RES
1 *6771:Y 6770_1 2.38
2 6770_1 *6772:D 0
*END
*D_NET *6773 0.0001584
*CONN
*I *6774:Y O *D _2100
*I *6775:C I *L 0
*CAP
1 6773_1 0.0001584
*RES
1 *6774:Y 6773_1 1.02667
2 6773_1 *6775:C 0
*END
*D_NET *6776 0.00018288
*CONN
*I *6777:Y O *D _2101
*I *6778:D I *L 0
*CAP
1 6776_1 0.00018288
*RES
1 *6777:Y 6776_1 3.08
2 6776_1 *6778:D 0
*END
*D_NET *6779 0.0001584
*CONN
*I *6780:Y O *D _2104
*I *6781:C I *L 0
*CAP
1 6779_1 0.0001584
*RES
1 *6780:Y 6779_1 1.02667
2 6779_1 *6781:C 0
*END
*D_NET *6782 0.00016968
*CONN
*I *6783:Y O *D _2105
*I *6784:D I *L 0
*CAP
1 6782_1 0.00016968
*RES
1 *6783:Y 6782_1 2.38
2 6782_1 *6784:D 0
*END
*D_NET *6785 0.00021696
*CONN
*I *6786:Y O *D _2106
*I *6787:C I *L 0
*CAP
1 6785_1 0.00021696
*RES
1 *6786:Y 6785_1 3.36
2 6785_1 *6787:C 0
*END
*D_NET *6788 0.00018288
*CONN
*I *6789:Y O *D _2107
*I *6790:D I *L 0
*CAP
1 6788_1 0.00018288
*RES
1 *6789:Y 6788_1 3.08
2 6788_1 *6790:D 0
*END
*D_NET *6791 0.0001584
*CONN
*I *6792:Y O *D _2108
*I *6793:C I *L 0
*CAP
1 6791_1 0.0001584
*RES
1 *6792:Y 6791_1 1.02667
2 6791_1 *6793:C 0
*END
*D_NET *6794 0.00013584
*CONN
*I *6795:Y O *D _2109
*I *6796:D I *L 0
*CAP
1 6794_1 0.00013584
*RES
1 *6795:Y 6794_1 2.10667
2 6794_1 *6796:D 0
*END
*D_NET *6797 0.0001968
*CONN
*I *6798:Y O *D _2110
*I *6799:C I *L 0
*CAP
1 6797_1 0.0001968
*RES
1 *6798:Y 6797_1 2.8
2 6797_1 *6799:C 0
*END
*D_NET *6800 0.00015504
*CONN
*I *6801:Y O *D _2111
*I *6802:D I *L 0
*CAP
1 6800_1 0.00015504
*RES
1 *6801:Y 6800_1 3.64
2 6800_1 *6802:D 0
*END
*D_NET *6803 0.0001632
*CONN
*I *6804:Y O *D _2112
*I *6805:C I *L 0
*CAP
1 6803_1 0.0001632
*RES
1 *6804:Y 6803_1 1.86667
2 6803_1 *6805:C 0
*END
*D_NET *6806 0.00013272
*CONN
*I *6807:Y O *D _2113
*I *6808:D I *L 0
*CAP
1 6806_1 0.00013272
*RES
1 *6807:Y 6806_1 3.68667
2 6806_1 *6808:D 0
*END
*D_NET *6809 0.0001584
*CONN
*I *6810:Y O *D _2114
*I *6811:C I *L 0
*CAP
1 6809_1 0.0001584
*RES
1 *6810:Y 6809_1 1.02667
2 6809_1 *6811:C 0
*END
*D_NET *6812 0.00032544
*CONN
*I *6813:Y O *D _2115
*I *6814:D I *L 0
*CAP
1 6812_1 0.00032544
*RES
1 *6813:Y 6812_1 5.04
2 6812_1 *6814:D 0
*END
*D_NET *6815 0.0002304
*CONN
*I *6816:Y O *D _2116
*I *6817:C I *L 0
*CAP
1 6815_1 0.0002304
*RES
1 *6816:Y 6815_1 3.73333
2 6815_1 *6817:C 0
*END
*D_NET *6818 0.0005676
*CONN
*I *6819:Y O *D _2117
*I *6820:D I *L 0
*CAP
1 6818_1 0.0005676
*RES
1 *6819:Y 6818_1 7.14
2 6818_1 *6820:D 0
*END
*D_NET *6821 0.0001584
*CONN
*I *6822:Y O *D _2118
*I *6823:C I *L 0
*CAP
1 6821_1 0.0001584
*RES
1 *6822:Y 6821_1 1.02667
2 6821_1 *6823:C 0
*END
*D_NET *6824 0.00017184
*CONN
*I *6825:Y O *D _2119
*I *6826:D I *L 0
*CAP
1 6824_1 0.00017184
*RES
1 *6825:Y 6824_1 3.54667
2 6824_1 *6826:D 0
*END
*D_NET *6827 0.0003588
*CONN
*I *6828:Y O *D _2120
*I *6829:C I *L 0
*CAP
1 6827_1 0.0003588
*RES
1 *6828:Y 6827_1 5.74
2 6827_1 *6829:C 0
*END
*D_NET *6830 0.0002208
*CONN
*I *6831:Y O *D _2121
*I *6832:D I *L 0
*CAP
1 6830_1 0.0002208
*RES
1 *6831:Y 6830_1 2.24
2 6830_1 *6832:D 0
*END
*D_NET *6833 0.0001152
*CONN
*I *6834:Y O *D _2122
*I *6835:C I *L 0
*CAP
1 6833_1 0.0001152
*RES
1 *6834:Y 6833_1 1.86667
2 6833_1 *6835:C 0
*END
*D_NET *6836 0.00017616
*CONN
*I *6837:Y O *D _2123
*I *6838:D I *L 0
*CAP
1 6836_1 0.00017616
*RES
1 *6837:Y 6836_1 2.89333
2 6836_1 *6838:D 0
*END
*D_NET *6839 0.0001584
*CONN
*I *6840:Y O *D _2124
*I *6841:C I *L 0
*CAP
1 6839_1 0.0001584
*RES
1 *6840:Y 6839_1 1.02667
2 6839_1 *6841:C 0
*END
*D_NET *6842 0.00014112
*CONN
*I *6843:Y O *D _2125
*I *6844:D I *L 0
*CAP
1 6842_1 0.00014112
*RES
1 *6843:Y 6842_1 3.92
2 6842_1 *6844:D 0
*END
*D_NET *6845 0.0001584
*CONN
*I *6846:Y O *D _2126
*I *6847:C I *L 0
*CAP
1 6845_1 0.0001584
*RES
1 *6846:Y 6845_1 1.02667
2 6845_1 *6847:C 0
*END
*D_NET *6848 0.00030864
*CONN
*I *6849:Y O *D _2127
*I *6850:D I *L 0
*CAP
1 6848_1 0.00030864
*RES
1 *6849:Y 6848_1 5.50667
2 6848_1 *6850:D 0
*END
*D_NET *6851 0.0001584
*CONN
*I *6852:Y O *D _2128
*I *6853:C I *L 0
*CAP
1 6851_1 0.0001584
*RES
1 *6852:Y 6851_1 1.02667
2 6851_1 *6853:C 0
*END
*D_NET *6854 0.000216
*CONN
*I *6855:Y O *D _2129
*I *6856:D I *L 0
*CAP
1 6854_1 0.000216
*RES
1 *6855:Y 6854_1 4.66667
2 6854_1 *6856:D 0
*END
*D_NET *6857 8.64e-05
*CONN
*I *6858:Y O *D _2130
*I *6859:C I *L 0
*CAP
1 6857_1 8.64e-05
*RES
1 *6858:Y 6857_1 0.56
2 6857_1 *6859:C 0
*END
*D_NET *6860 0.00061128
*CONN
*I *6861:Y O *D _2131
*I *6862:D I *L 0
*CAP
1 6860_1 0.00061128
*RES
1 *6861:Y 6860_1 7.98
2 6860_1 *6862:D 0
*END
*D_NET *6863 0.0001584
*CONN
*I *6864:Y O *D _2132
*I *6865:C I *L 0
*CAP
1 6863_1 0.0001584
*RES
1 *6864:Y 6863_1 1.02667
2 6863_1 *6865:C 0
*END
*D_NET *6866 0.00031728
*CONN
*I *6867:Y O *D _2133
*I *6868:D I *L 0
*CAP
1 6866_1 0.00031728
*RES
1 *6867:Y 6866_1 4.94667
2 6866_1 *6868:D 0
*END
*D_NET *6869 0.0001584
*CONN
*I *6870:Y O *D _2134
*I *6871:C I *L 0
*CAP
1 6869_1 0.0001584
*RES
1 *6870:Y 6869_1 1.02667
2 6869_1 *6871:C 0
*END
*D_NET *6872 0.00024288
*CONN
*I *6873:Y O *D _2135
*I *6874:D I *L 0
*CAP
1 6872_1 0.00024288
*RES
1 *6873:Y 6872_1 4.85333
2 6872_1 *6874:D 0
*END
*D_NET *6875 0.0001584
*CONN
*I *6876:Y O *D _2136
*I *6877:C I *L 0
*CAP
1 6875_1 0.0001584
*RES
1 *6876:Y 6875_1 1.02667
2 6875_1 *6877:C 0
*END
*D_NET *6878 0.00015504
*CONN
*I *6879:Y O *D _2137
*I *6880:D I *L 0
*CAP
1 6878_1 0.00015504
*RES
1 *6879:Y 6878_1 3.64
2 6878_1 *6880:D 0
*END
*D_NET *6881 0.0001584
*CONN
*I *6882:Y O *D _2138
*I *6883:C I *L 0
*CAP
1 6881_1 0.0001584
*RES
1 *6882:Y 6881_1 1.02667
2 6881_1 *6883:C 0
*END
*D_NET *6884 0.00017184
*CONN
*I *6885:Y O *D _2139
*I *6886:D I *L 0
*CAP
1 6884_1 0.00017184
*RES
1 *6885:Y 6884_1 3.54667
2 6884_1 *6886:D 0
*END
*D_NET *6887 0.0001584
*CONN
*I *6888:Y O *D _2140
*I *6889:C I *L 0
*CAP
1 6887_1 0.0001584
*RES
1 *6888:Y 6887_1 1.02667
2 6887_1 *6889:C 0
*END
*D_NET *6890 0.0002436
*CONN
*I *6891:Y O *D _2141
*I *6892:D I *L 0
*CAP
1 6890_1 0.0002436
*RES
1 *6891:Y 6890_1 4.43333
2 6890_1 *6892:D 0
*END
*D_NET *6893 0.00012192
*CONN
*I *6894:Y O *D _2142
*I *6895:C I *L 0
*CAP
1 6893_1 0.00012192
*RES
1 *6894:Y 6893_1 2.05333
2 6893_1 *6895:C 0
*END
*D_NET *6896 0.0001764
*CONN
*I *6897:Y O *D _2143
*I *6898:D I *L 0
*CAP
1 6896_1 0.0001764
*RES
1 *6897:Y 6896_1 2.56667
2 6896_1 *6898:D 0
*END
*D_NET *6899 0.0001584
*CONN
*I *6900:Y O *D _2144
*I *6901:C I *L 0
*CAP
1 6899_1 0.0001584
*RES
1 *6900:Y 6899_1 1.02667
2 6899_1 *6901:C 0
*END
*D_NET *6902 0.00016176
*CONN
*I *6903:Y O *D _2145
*I *6904:D I *L 0
*CAP
1 6902_1 0.00016176
*RES
1 *6903:Y 6902_1 3.82667
2 6902_1 *6904:D 0
*END
*D_NET *6905 0.0001584
*CONN
*I *6906:Y O *D _2146
*I *6907:C I *L 0
*CAP
1 6905_1 0.0001584
*RES
1 *6906:Y 6905_1 1.02667
2 6905_1 *6907:C 0
*END
*D_NET *6908 0.0002232
*CONN
*I *6909:Y O *D _2147
*I *6910:D I *L 0
*CAP
1 6908_1 0.0002232
*RES
1 *6909:Y 6908_1 4.2
2 6908_1 *6910:D 0
*END
*D_NET *6911 0.0003072
*CONN
*I *6912:Y O *D _2148
*I *6913:C I *L 0
*CAP
1 6911_1 0.0003072
*RES
1 *6912:Y 6911_1 2.8
2 6911_1 *6913:C 0
*END
*D_NET *6914 0.00019632
*CONN
*I *6915:Y O *D _2149
*I *6916:D I *L 0
*CAP
1 6914_1 0.00019632
*RES
1 *6915:Y 6914_1 3.45333
2 6914_1 *6916:D 0
*END
*D_NET *6917 0.0001968
*CONN
*I *6918:Y O *D _2150
*I *6919:C I *L 0
*CAP
1 6917_1 0.0001968
*RES
1 *6918:Y 6917_1 2.8
2 6917_1 *6919:C 0
*END
*D_NET *6920 0.00018
*CONN
*I *6921:Y O *D _2151
*I *6922:D I *L 0
*CAP
1 6920_1 0.00018
*RES
1 *6921:Y 6920_1 3.53333
2 6920_1 *6922:D 0
*END
*D_NET *6923 0.0001584
*CONN
*I *6924:Y O *D _2152
*I *6925:C I *L 0
*CAP
1 6923_1 0.0001584
*RES
1 *6924:Y 6923_1 1.02667
2 6923_1 *6925:C 0
*END
*D_NET *6926 0.00015168
*CONN
*I *6927:Y O *D _2153
*I *6928:D I *L 0
*CAP
1 6926_1 0.00015168
*RES
1 *6927:Y 6926_1 2.98667
2 6926_1 *6928:D 0
*END
*D_NET *6929 0.0001584
*CONN
*I *6930:Y O *D _2154
*I *6931:C I *L 0
*CAP
1 6929_1 0.0001584
*RES
1 *6930:Y 6929_1 1.02667
2 6929_1 *6931:C 0
*END
*D_NET *6932 0.00012816
*CONN
*I *6933:Y O *D _2155
*I *6934:D I *L 0
*CAP
1 6932_1 0.00012816
*RES
1 *6933:Y 6932_1 2.89333
2 6932_1 *6934:D 0
*END
*D_NET *6935 0.0001584
*CONN
*I *6936:Y O *D _2156
*I *6937:C I *L 0
*CAP
1 6935_1 0.0001584
*RES
1 *6936:Y 6935_1 1.02667
2 6935_1 *6937:C 0
*END
*D_NET *6938 0.00029112
*CONN
*I *6939:Y O *D _2157
*I *6940:D I *L 0
*CAP
1 6938_1 0.00029112
*RES
1 *6939:Y 6938_1 5.08667
2 6938_1 *6940:D 0
*END
*D_NET *6941 0.0001584
*CONN
*I *6942:Y O *D _2158
*I *6943:C I *L 0
*CAP
1 6941_1 0.0001584
*RES
1 *6942:Y 6941_1 1.02667
2 6941_1 *6943:C 0
*END
*D_NET *6944 0.00017184
*CONN
*I *6945:Y O *D _2159
*I *6946:D I *L 0
*CAP
1 6944_1 0.00017184
*RES
1 *6945:Y 6944_1 3.54667
2 6944_1 *6946:D 0
*END
*D_NET *6947 0.0001584
*CONN
*I *6948:Y O *D _2160
*I *6949:C I *L 0
*CAP
1 6947_1 0.0001584
*RES
1 *6948:Y 6947_1 1.02667
2 6947_1 *6949:C 0
*END
*D_NET *6950 0.00058536
*CONN
*I *6951:Y O *D _2161
*I *6952:D I *L 0
*CAP
1 6950_1 0.00058536
*RES
1 *6951:Y 6950_1 10.0333
2 6950_1 *6952:D 0
*END
*D_NET *6953 0.0001584
*CONN
*I *6954:Y O *D _2162
*I *6955:C I *L 0
*CAP
1 6953_1 0.0001584
*RES
1 *6954:Y 6953_1 1.02667
2 6953_1 *6955:C 0
*END
*D_NET *6956 0.00017616
*CONN
*I *6957:Y O *D _2163
*I *6958:D I *L 0
*CAP
1 6956_1 0.00017616
*RES
1 *6957:Y 6956_1 2.89333
2 6956_1 *6958:D 0
*END
*D_NET *6959 0.0001584
*CONN
*I *6960:Y O *D _2164
*I *6961:C I *L 0
*CAP
1 6959_1 0.0001584
*RES
1 *6960:Y 6959_1 1.02667
2 6959_1 *6961:C 0
*END
*D_NET *6962 0.00025056
*CONN
*I *6963:Y O *D _2165
*I *6964:D I *L 0
*CAP
1 6962_1 0.00025056
*RES
1 *6963:Y 6962_1 4.29333
2 6962_1 *6964:D 0
*END
*D_NET *6965 0.0001584
*CONN
*I *6966:Y O *D _2166
*I *6967:C I *L 0
*CAP
1 6965_1 0.0001584
*RES
1 *6966:Y 6965_1 1.02667
2 6965_1 *6967:C 0
*END
*D_NET *6968 0.0001224
*CONN
*I *6969:Y O *D _2167
*I *6970:D I *L 0
*CAP
1 6968_1 0.0001224
*RES
1 *6969:Y 6968_1 1.4
2 6968_1 *6970:D 0
*END
*D_NET *6971 0.00018
*CONN
*I *6972:Y O *D _2168
*I *6973:A I *L 0
*CAP
1 6971_1 0.00018
*RES
1 *6972:Y 6971_1 1.77333
2 6971_1 *6973:A 0
*END
*D_NET *6974 0.0004944
*CONN
*I *6975:Y O *D _2171
*I *6976:C I *L 0
*CAP
1 6974_1 0.0004944
*RES
1 *6975:Y 6974_1 7.46667
2 6974_1 *6976:C 0
*END
*D_NET *6977 6.72e-05
*CONN
*I *6978:Y O *D _2172
*I *6979:D I *L 0
*CAP
1 6977_1 6.72e-05
*RES
1 *6978:Y 6977_1 1.86667
2 6977_1 *6979:D 0
*END
*D_NET *6980 0.0001584
*CONN
*I *6981:Y O *D _2173
*I *6982:C I *L 0
*CAP
1 6980_1 0.0001584
*RES
1 *6981:Y 6980_1 1.02667
2 6980_1 *6982:C 0
*END
*D_NET *6983 0.00018984
*CONN
*I *6984:Y O *D _2174
*I *6985:D I *L 0
*CAP
1 6983_1 0.00018984
*RES
1 *6984:Y 6983_1 2.94
2 6983_1 *6985:D 0
*END
*D_NET *6986 0.0001584
*CONN
*I *6987:Y O *D _2175
*I *6988:C I *L 0
*CAP
1 6986_1 0.0001584
*RES
1 *6987:Y 6986_1 1.02667
2 6986_1 *6988:C 0
*END
*D_NET *6989 0.00041904
*CONN
*I *6990:Y O *D _2176
*I *6991:D I *L 0
*CAP
1 6989_1 0.00041904
*RES
1 *6990:Y 6989_1 8.30667
2 6989_1 *6991:D 0
*END
*D_NET *6992 0.0001584
*CONN
*I *6993:Y O *D _2177
*I *6994:C I *L 0
*CAP
1 6992_1 0.0001584
*RES
1 *6993:Y 6992_1 1.02667
2 6992_1 *6994:C 0
*END
*D_NET *6995 0.00016872
*CONN
*I *6996:Y O *D _2178
*I *6997:D I *L 0
*CAP
1 6995_1 0.00016872
*RES
1 *6996:Y 6995_1 3.68667
2 6995_1 *6997:D 0
*END
*D_NET *6998 8.112e-05
*CONN
*I *6999:Y O *D _2179
*I *7000:C I *L 0
*CAP
1 6998_1 8.112e-05
*RES
1 *6999:Y 6998_1 1.58667
2 6998_1 *7000:C 0
*END
*D_NET *7001 0.00032448
*CONN
*I *7002:Y O *D _2180
*I *7003:D I *L 0
*CAP
1 7001_1 0.00032448
*RES
1 *7002:Y 7001_1 4.48
2 7001_1 *7003:D 0
*END
*D_NET *7004 3.36e-05
*CONN
*I *7005:Y O *D _2181
*I *7006:C I *L 0
*CAP
1 7004_1 3.36e-05
*RES
1 *7005:Y 7004_1 0.933333
2 7004_1 *7006:C 0
*END
*D_NET *7007 0.00016176
*CONN
*I *7008:Y O *D _2182
*I *7009:D I *L 0
*CAP
1 7007_1 0.00016176
*RES
1 *7008:Y 7007_1 3.82667
2 7007_1 *7009:D 0
*END
*D_NET *7010 0.00040728
*CONN
*I *7011:Y O *D _2183
*I *7012:C I *L 0
*CAP
1 7010_1 0.00040728
*RES
1 *7011:Y 7010_1 5.64667
2 7010_1 *7012:C 0
*END
*D_NET *7013 0.00011424
*CONN
*I *7014:Y O *D _2184
*I *7015:D I *L 0
*CAP
1 7013_1 0.00011424
*RES
1 *7014:Y 7013_1 3.17333
2 7013_1 *7015:D 0
*END
*D_NET *7016 0.0001584
*CONN
*I *7017:Y O *D _2185
*I *7018:C I *L 0
*CAP
1 7016_1 0.0001584
*RES
1 *7017:Y 7016_1 1.02667
2 7016_1 *7018:C 0
*END
*D_NET *7019 0.00033432
*CONN
*I *7020:Y O *D _2186
*I *7021:D I *L 0
*CAP
1 7019_1 0.00033432
*RES
1 *7020:Y 7019_1 6.95333
2 7019_1 *7021:D 0
*END
*D_NET *7022 0.00012528
*CONN
*I *7023:Y O *D _2187
*I *7024:C I *L 0
*CAP
1 7022_1 0.00012528
*RES
1 *7023:Y 7022_1 1.58667
2 7022_1 *7024:C 0
*END
*D_NET *7025 0.0002508
*CONN
*I *7026:Y O *D _2188
*I *7027:D I *L 0
*CAP
1 7025_1 0.0002508
*RES
1 *7026:Y 7025_1 3.96667
2 7025_1 *7027:D 0
*END
*D_NET *7028 0.0001428
*CONN
*I *7029:Y O *D _2189
*I *7030:C I *L 0
*CAP
1 7028_1 0.0001428
*RES
1 *7029:Y 7028_1 1.63333
2 7028_1 *7030:C 0
*END
*D_NET *7031 0.00013512
*CONN
*I *7032:Y O *D _2190
*I *7033:D I *L 0
*CAP
1 7031_1 0.00013512
*RES
1 *7032:Y 7031_1 2.75333
2 7031_1 *7033:D 0
*END
*D_NET *7034 0.0001584
*CONN
*I *7035:Y O *D _2191
*I *7036:C I *L 0
*CAP
1 7034_1 0.0001584
*RES
1 *7035:Y 7034_1 1.02667
2 7034_1 *7036:C 0
*END
*D_NET *7037 0.00058824
*CONN
*I *7038:Y O *D _2192
*I *7039:D I *L 0
*CAP
1 7037_1 0.00058824
*RES
1 *7038:Y 7037_1 11.34
2 7037_1 *7039:D 0
*END
*D_NET *7040 0.0001584
*CONN
*I *7041:Y O *D _2193
*I *7042:C I *L 0
*CAP
1 7040_1 0.0001584
*RES
1 *7041:Y 7040_1 1.02667
2 7040_1 *7042:C 0
*END
*D_NET *7043 0.00024432
*CONN
*I *7044:Y O *D _2194
*I *7045:D I *L 0
*CAP
1 7043_1 0.00024432
*RES
1 *7044:Y 7043_1 3.45333
2 7043_1 *7045:D 0
*END
*D_NET *7046 0.00187968
*CONN
*I *7047:Y O *D _2195
*I *7048:C I *L 0
*CAP
1 7046_1 0.00187968
*RES
1 *7047:Y 7046_1 21.6533
2 7046_1 *7048:C 0
*END
*D_NET *7049 0.00023688
*CONN
*I *7050:Y O *D _2196
*I *7051:D I *L 0
*CAP
1 7049_1 0.00023688
*RES
1 *7050:Y 7049_1 4.24667
2 7049_1 *7051:D 0
*END
*D_NET *7052 0.0001584
*CONN
*I *7053:Y O *D _2197
*I *7054:C I *L 0
*CAP
1 7052_1 0.0001584
*RES
1 *7053:Y 7052_1 1.02667
2 7052_1 *7054:C 0
*END
*D_NET *7055 0.00028368
*CONN
*I *7056:Y O *D _2198
*I *7057:D I *L 0
*CAP
1 7055_1 0.00028368
*RES
1 *7056:Y 7055_1 5.88
2 7055_1 *7057:D 0
*END
*D_NET *7058 0.0001584
*CONN
*I *7059:Y O *D _2199
*I *7060:C I *L 0
*CAP
1 7058_1 0.0001584
*RES
1 *7059:Y 7058_1 1.02667
2 7058_1 *7060:C 0
*END
*D_NET *7061 0.00029736
*CONN
*I *7062:Y O *D _2200
*I *7063:D I *L 0
*CAP
1 7061_1 0.00029736
*RES
1 *7062:Y 7061_1 5.92667
2 7061_1 *7063:D 0
*END
*D_NET *7064 0.0001584
*CONN
*I *7065:Y O *D _2201
*I *7066:C I *L 0
*CAP
1 7064_1 0.0001584
*RES
1 *7065:Y 7064_1 1.02667
2 7064_1 *7066:C 0
*END
*D_NET *7067 0.00015504
*CONN
*I *7068:Y O *D _2202
*I *7069:D I *L 0
*CAP
1 7067_1 0.00015504
*RES
1 *7068:Y 7067_1 3.64
2 7067_1 *7069:D 0
*END
*D_NET *7070 3.36e-05
*CONN
*I *7071:Y O *D _2203
*I *7072:C I *L 0
*CAP
1 7070_1 3.36e-05
*RES
1 *7071:Y 7070_1 0.933333
2 7070_1 *7072:C 0
*END
*D_NET *7073 0.00016872
*CONN
*I *7074:Y O *D _2204
*I *7075:D I *L 0
*CAP
1 7073_1 0.00016872
*RES
1 *7074:Y 7073_1 3.68667
2 7073_1 *7075:D 0
*END
*D_NET *7076 0.0001584
*CONN
*I *7077:Y O *D _2205
*I *7078:C I *L 0
*CAP
1 7076_1 0.0001584
*RES
1 *7077:Y 7076_1 1.02667
2 7076_1 *7078:C 0
*END
*D_NET *7079 0.00026544
*CONN
*I *7080:Y O *D _2206
*I *7081:D I *L 0
*CAP
1 7079_1 0.00026544
*RES
1 *7080:Y 7079_1 4.57333
2 7079_1 *7081:D 0
*END
*D_NET *7082 0.0001584
*CONN
*I *7083:Y O *D _2207
*I *7084:C I *L 0
*CAP
1 7082_1 0.0001584
*RES
1 *7083:Y 7082_1 1.02667
2 7082_1 *7084:C 0
*END
*D_NET *7085 0.00018312
*CONN
*I *7086:Y O *D _2208
*I *7087:D I *L 0
*CAP
1 7085_1 0.00018312
*RES
1 *7086:Y 7085_1 2.75333
2 7085_1 *7087:D 0
*END
*D_NET *7088 0.0001584
*CONN
*I *7089:Y O *D _2209
*I *7090:C I *L 0
*CAP
1 7088_1 0.0001584
*RES
1 *7089:Y 7088_1 1.02667
2 7088_1 *7090:C 0
*END
*D_NET *7091 0.0002568
*CONN
*I *7092:Y O *D _2210
*I *7093:D I *L 0
*CAP
1 7091_1 0.0002568
*RES
1 *7092:Y 7091_1 5.13333
2 7091_1 *7093:D 0
*END
*D_NET *7094 0.0001584
*CONN
*I *7095:Y O *D _2211
*I *7096:C I *L 0
*CAP
1 7094_1 0.0001584
*RES
1 *7095:Y 7094_1 1.02667
2 7094_1 *7096:C 0
*END
*D_NET *7097 0.00017184
*CONN
*I *7098:Y O *D _2212
*I *7099:D I *L 0
*CAP
1 7097_1 0.00017184
*RES
1 *7098:Y 7097_1 3.54667
2 7097_1 *7099:D 0
*END
*D_NET *7100 0.0001584
*CONN
*I *7101:Y O *D _2213
*I *7102:C I *L 0
*CAP
1 7100_1 0.0001584
*RES
1 *7101:Y 7100_1 1.02667
2 7100_1 *7102:C 0
*END
*D_NET *7103 0.00030384
*CONN
*I *7104:Y O *D _2214
*I *7105:D I *L 0
*CAP
1 7103_1 0.00030384
*RES
1 *7104:Y 7103_1 6.44
2 7103_1 *7105:D 0
*END
*D_NET *7106 8.112e-05
*CONN
*I *7107:Y O *D _2215
*I *7108:C I *L 0
*CAP
1 7106_1 8.112e-05
*RES
1 *7107:Y 7106_1 1.58667
2 7106_1 *7108:C 0
*END
*D_NET *7109 0.0004536
*CONN
*I *7110:Y O *D _2216
*I *7111:D I *L 0
*CAP
1 7109_1 0.0004536
*RES
1 *7110:Y 7109_1 7.93333
2 7109_1 *7111:D 0
*END
*D_NET *7112 0.0001584
*CONN
*I *7113:Y O *D _2217
*I *7114:C I *L 0
*CAP
1 7112_1 0.0001584
*RES
1 *7113:Y 7112_1 1.02667
2 7112_1 *7114:C 0
*END
*D_NET *7115 0.00021624
*CONN
*I *7116:Y O *D _2218
*I *7117:D I *L 0
*CAP
1 7115_1 0.00021624
*RES
1 *7116:Y 7115_1 2.47333
2 7115_1 *7117:D 0
*END
*D_NET *7118 0.0001584
*CONN
*I *7119:Y O *D _2219
*I *7120:C I *L 0
*CAP
1 7118_1 0.0001584
*RES
1 *7119:Y 7118_1 1.02667
2 7118_1 *7120:C 0
*END
*D_NET *7121 0.00019632
*CONN
*I *7122:Y O *D _2220
*I *7123:D I *L 0
*CAP
1 7121_1 0.00019632
*RES
1 *7122:Y 7121_1 3.45333
2 7121_1 *7123:D 0
*END
*D_NET *7124 0.0001584
*CONN
*I *7125:Y O *D _2221
*I *7126:C I *L 0
*CAP
1 7124_1 0.0001584
*RES
1 *7125:Y 7124_1 1.02667
2 7124_1 *7126:C 0
*END
*D_NET *7127 0.00019584
*CONN
*I *7128:Y O *D _2222
*I *7129:D I *L 0
*CAP
1 7127_1 0.00019584
*RES
1 *7128:Y 7127_1 4.10667
2 7127_1 *7129:D 0
*END
*D_NET *7130 0.0001584
*CONN
*I *7131:Y O *D _2223
*I *7132:C I *L 0
*CAP
1 7130_1 0.0001584
*RES
1 *7131:Y 7130_1 1.02667
2 7130_1 *7132:C 0
*END
*D_NET *7133 0.00017184
*CONN
*I *7134:Y O *D _2224
*I *7135:D I *L 0
*CAP
1 7133_1 0.00017184
*RES
1 *7134:Y 7133_1 3.54667
2 7133_1 *7135:D 0
*END
*D_NET *7136 0.0001584
*CONN
*I *7137:Y O *D _2225
*I *7138:C I *L 0
*CAP
1 7136_1 0.0001584
*RES
1 *7137:Y 7136_1 1.02667
2 7136_1 *7138:C 0
*END
*D_NET *7139 0.00018528
*CONN
*I *7140:Y O *D _2226
*I *7141:D I *L 0
*CAP
1 7139_1 0.00018528
*RES
1 *7140:Y 7139_1 3.92
2 7139_1 *7141:D 0
*END
*D_NET *7142 0.0001584
*CONN
*I *7143:Y O *D _2227
*I *7144:C I *L 0
*CAP
1 7142_1 0.0001584
*RES
1 *7143:Y 7142_1 1.02667
2 7142_1 *7144:C 0
*END
*D_NET *7145 0.00016968
*CONN
*I *7146:Y O *D _2228
*I *7147:D I *L 0
*CAP
1 7145_1 0.00016968
*RES
1 *7146:Y 7145_1 2.38
2 7145_1 *7147:D 0
*END
*D_NET *7148 0.0001584
*CONN
*I *7149:Y O *D _2229
*I *7150:C I *L 0
*CAP
1 7148_1 0.0001584
*RES
1 *7149:Y 7148_1 1.02667
2 7148_1 *7150:C 0
*END
*D_NET *7151 0.00017184
*CONN
*I *7152:Y O *D _2230
*I *7153:D I *L 0
*CAP
1 7151_1 0.00017184
*RES
1 *7152:Y 7151_1 3.54667
2 7151_1 *7153:D 0
*END
*D_NET *7154 0.0001584
*CONN
*I *7155:Y O *D _2231
*I *7156:C I *L 0
*CAP
1 7154_1 0.0001584
*RES
1 *7155:Y 7154_1 1.02667
2 7154_1 *7156:C 0
*END
*D_NET *7157 0.00014256
*CONN
*I *7158:Y O *D _2232
*I *7159:D I *L 0
*CAP
1 7157_1 0.00014256
*RES
1 *7158:Y 7157_1 1.96
2 7157_1 *7159:D 0
*END
*D_NET *7160 0.0002736
*CONN
*I *7161:Y O *D _2233
*I *7162:C I *L 0
*CAP
1 7160_1 0.0002736
*RES
1 *7161:Y 7160_1 1.77333
2 7160_1 *7162:C 0
*END
*D_NET *7163 0.00028704
*CONN
*I *7164:Y O *D _2234
*I *7165:D I *L 0
*CAP
1 7163_1 0.00028704
*RES
1 *7164:Y 7163_1 4.29333
2 7163_1 *7165:D 0
*END
*D_NET *7166 5.76e-05
*CONN
*I *7167:Y O *D _2238
*I *7168:A I *L 0
*CAP
1 7166_1 5.76e-05
*RES
1 *7167:Y 7166_1 0.373333
2 7166_1 *7168:A 0
*END
*D_NET *7169 0.00071712
*CONN
*I *7170:Y O *D _2240
*I *7171:C I *L 0
*CAP
1 7169_1 0.00071712
*RES
1 *7170:Y 7169_1 17.2533
2 7169_1 *7171:C 0
*END
*D_NET *7172 0.00017544
*CONN
*I *7173:Y O *D _2242
*I *7174:B I *L 0
*CAP
1 7172_1 0.00017544
*RES
1 *7173:Y 7172_1 2.00667
2 7172_1 *7174:B 0
*END
*D_NET *7175 0.00038304
*CONN
*I *7176:Y O *D _2243
*I *7177:A I *L 0
*CAP
1 7175_1 0.00038304
*RES
1 *7176:Y 7175_1 3.45333
2 7175_1 *7177:A 0
*END
*D_NET *7178 0.00040776
*CONN
*I *7179:Y O *D _2244
*I *7180:C I *L 0
*CAP
1 7178_1 0.00040776
*RES
1 *7179:Y 7178_1 4.99333
2 7178_1 *7180:C 0
*END
*D_NET *7181 0.00037776
*CONN
*I *7182:Y O *D _2245
*I *7183:D I *L 0
*CAP
1 7181_1 0.00037776
*RES
1 *7182:Y 7181_1 8.49333
2 7181_1 *7183:D 0
*END
*D_NET *7184 5.76e-05
*CONN
*I *7185:Y O *D _2246
*I *7186:A I *L 0
*CAP
1 7184_1 5.76e-05
*RES
1 *7185:Y 7184_1 0.373333
2 7184_1 *7186:A 0
*END
*D_NET *7187 0.0004656
*CONN
*I *7188:Y O *D _2248
*I *7189:A I *L 0
*CAP
1 7187_1 0.0004656
*RES
1 *7188:Y 7187_1 5.04
2 7187_1 *7189:A 0
*END
*D_NET *7190 0.00166728
*CONN
*I *7191:Y O *D _2249
*I *7192:C I *L 0
*CAP
1 7190_1 0.00166728
*RES
1 *7191:Y 7190_1 20.9133
2 7190_1 *7192:C 0
*END
*D_NET *7193 8.64e-05
*CONN
*I *7194:Y O *D _2251
*I *7195:B I *L 0
*CAP
1 7193_1 8.64e-05
*RES
1 *7194:Y 7193_1 0.56
2 7193_1 *7195:B 0
*END
*D_NET *7196 8.784e-05
*CONN
*I *7197:Y O *D _2252
*I *7198:A I *L 0
*CAP
1 7196_1 8.784e-05
*RES
1 *7197:Y 7196_1 1.77333
2 7196_1 *7198:A 0
*END
*D_NET *7199 0.00037008
*CONN
*I *7200:Y O *D _2253
*I *7201:C I *L 0
*CAP
1 7199_1 0.00037008
*RES
1 *7200:Y 7199_1 5.32
2 7199_1 *7201:C 0
*END
*D_NET *7202 0.00028536
*CONN
*I *7203:Y O *D _2254
*I *7204:D I *L 0
*CAP
1 7202_1 0.00028536
*RES
1 *7203:Y 7202_1 3.59333
2 7202_1 *7204:D 0
*END
*D_NET *7205 5.76e-05
*CONN
*I *7206:Y O *D _2255
*I *7207:A I *L 0
*CAP
1 7205_1 5.76e-05
*RES
1 *7206:Y 7205_1 0.373333
2 7205_1 *7207:A 0
*END
*D_NET *7208 0.00069
*CONN
*I *7209:Y O *D _2257
*I *7210:A I *L 0
*CAP
1 7208_1 0.00069
*RES
1 *7209:Y 7208_1 7.60667
2 7208_1 *7210:A 0
*END
*D_NET *7211 0.00060384
*CONN
*I *7212:Y O *D _2258
*I *7213:C I *L 0
*CAP
1 7211_1 0.00060384
*RES
1 *7212:Y 7211_1 6.90667
2 7211_1 *7213:C 0
*END
*D_NET *7214 8.64e-05
*CONN
*I *7215:Y O *D _2260
*I *7216:B I *L 0
*CAP
1 7214_1 8.64e-05
*RES
1 *7215:Y 7214_1 0.56
2 7214_1 *7216:B 0
*END
*D_NET *7217 8.784e-05
*CONN
*I *7218:Y O *D _2261
*I *7219:A I *L 0
*CAP
1 7217_1 8.784e-05
*RES
1 *7218:Y 7217_1 1.77333
2 7217_1 *7219:A 0
*END
*D_NET *7220 0.00017544
*CONN
*I *7221:Y O *D _2262
*I *7222:C I *L 0
*CAP
1 7220_1 0.00017544
*RES
1 *7221:Y 7220_1 2.00667
2 7220_1 *7222:C 0
*END
*D_NET *7223 0.0004212
*CONN
*I *7224:Y O *D _2263
*I *7225:D I *L 0
*CAP
1 7223_1 0.0004212
*RES
1 *7224:Y 7223_1 5.36667
2 7223_1 *7225:D 0
*END
*D_NET *7226 7.44e-05
*CONN
*I *7227:Y O *D _2264
*I *7228:A I *L 0
*CAP
1 7226_1 7.44e-05
*RES
1 *7227:Y 7226_1 1.4
2 7226_1 *7228:A 0
*END
*D_NET *7229 0.00016296
*CONN
*I *7230:Y O *D _2266
*I *7231:A I *L 0
*CAP
1 7229_1 0.00016296
*RES
1 *7230:Y 7229_1 2.19333
2 7229_1 *7231:A 0
*END
*D_NET *7232 0.0001584
*CONN
*I *7233:Y O *D _2267
*I *7234:C I *L 0
*CAP
1 7232_1 0.0001584
*RES
1 *7233:Y 7232_1 1.02667
2 7232_1 *7234:C 0
*END
*D_NET *7235 6.048e-05
*CONN
*I *7236:Y O *D _2269
*I *7237:B I *L 0
*CAP
1 7235_1 6.048e-05
*RES
1 *7236:Y 7235_1 1.68
2 7235_1 *7237:B 0
*END
*D_NET *7238 8.64e-05
*CONN
*I *7239:Y O *D _2270
*I *7240:A I *L 0
*CAP
1 7238_1 8.64e-05
*RES
1 *7239:Y 7238_1 0.56
2 7238_1 *7240:A 0
*END
*D_NET *7241 0.000378
*CONN
*I *7242:Y O *D _2271
*I *7243:C I *L 0
*CAP
1 7241_1 0.000378
*RES
1 *7242:Y 7241_1 3.96667
2 7241_1 *7243:C 0
*END
*D_NET *7244 0.00045504
*CONN
*I *7245:Y O *D _2272
*I *7246:D I *L 0
*CAP
1 7244_1 0.00045504
*RES
1 *7245:Y 7244_1 5.97333
2 7244_1 *7246:D 0
*END
*D_NET *7247 0.00399168
*CONN
*I *7248:Y O *D _2273
*I *7249:A I *L 0
*CAP
1 7247_1 0.00399168
*RES
1 *7248:Y 7247_1 46.9467
2 7247_1 *7249:A 0
*END
*D_NET *7250 0.00015888
*CONN
*I *7251:Y O *D _2275
*I *7252:A I *L 0
*CAP
1 7250_1 0.00015888
*RES
1 *7251:Y 7250_1 2.52
2 7250_1 *7252:A 0
*END
*D_NET *7253 0.0006252
*CONN
*I *7254:Y O *D _2276
*I *7255:C I *L 0
*CAP
1 7253_1 0.0006252
*RES
1 *7254:Y 7253_1 7.60667
2 7253_1 *7255:C 0
*END
*D_NET *7256 0.00192456
*CONN
*I *7257:Y O *D _2278
*I *7258:B I *L 0
*CAP
1 7256_1 0.00192456
*RES
1 *7257:Y 7256_1 24.0333
2 7256_1 *7258:B 0
*END
*D_NET *7259 0.0029184
*CONN
*I *7260:Y O *D _2279
*I *7261:A I *L 0
*CAP
1 7259_1 0.0029184
*RES
1 *7260:Y 7259_1 31.44
2 7259_1 *7261:A 0
*END
*D_NET *7262 0.00225408
*CONN
*I *7263:Y O *D _2280
*I *7264:C I *L 0
*CAP
1 7262_1 0.00225408
*RES
1 *7263:Y 7262_1 25.7467
2 7262_1 *7264:C 0
*END
*D_NET *7265 0.00253008
*CONN
*I *7266:Y O *D _2281
*I *7267:D I *L 0
*CAP
1 7265_1 0.00253008
*RES
1 *7266:Y 7265_1 26.08
2 7265_1 *7267:D 0
*END
*D_NET *7268 0.00016272
*CONN
*I *7269:Y O *D _2282
*I *7270:A I *L 0
*CAP
1 7268_1 0.00016272
*RES
1 *7269:Y 7268_1 2.52
2 7268_1 *7270:A 0
*END
*D_NET *7271 4.032e-05
*CONN
*I *7272:Y O *D _2284
*I *7273:A I *L 0
*CAP
1 7271_1 4.032e-05
*RES
1 *7272:Y 7271_1 1.12
2 7271_1 *7273:A 0
*END
*D_NET *7274 0.00121416
*CONN
*I *7275:Y O *D _2285
*I *7276:C I *L 0
*CAP
1 7274_1 0.00121416
*RES
1 *7275:Y 7274_1 13.7933
2 7274_1 *7276:C 0
*END
*D_NET *7277 8.64e-05
*CONN
*I *7278:Y O *D _2287
*I *7279:B I *L 0
*CAP
1 7277_1 8.64e-05
*RES
1 *7278:Y 7277_1 0.56
2 7277_1 *7279:B 0
*END
*D_NET *7280 0.00012864
*CONN
*I *7281:Y O *D _2288
*I *7282:A I *L 0
*CAP
1 7280_1 0.00012864
*RES
1 *7281:Y 7280_1 2.24
2 7280_1 *7282:A 0
*END
*D_NET *7283 0.00018312
*CONN
*I *7284:Y O *D _2289
*I *7285:C I *L 0
*CAP
1 7283_1 0.00018312
*RES
1 *7284:Y 7283_1 2.75333
2 7283_1 *7285:C 0
*END
*D_NET *7286 0.00022128
*CONN
*I *7287:Y O *D _2290
*I *7288:D I *L 0
*CAP
1 7286_1 0.00022128
*RES
1 *7287:Y 7286_1 3.64
2 7286_1 *7288:D 0
*END
*D_NET *7289 5.76e-05
*CONN
*I *7290:Y O *D _2291
*I *7291:A I *L 0
*CAP
1 7289_1 5.76e-05
*RES
1 *7290:Y 7289_1 0.373333
2 7289_1 *7291:A 0
*END
*D_NET *7292 0.00031656
*CONN
*I *7293:Y O *D _2293
*I *7294:A I *L 0
*CAP
1 7292_1 0.00031656
*RES
1 *7293:Y 7292_1 4.06
2 7292_1 *7294:A 0
*END
*D_NET *7295 6.096e-05
*CONN
*I *7296:Y O *D _2294
*I *7297:C I *L 0
*CAP
1 7295_1 6.096e-05
*RES
1 *7296:Y 7295_1 1.02667
2 7295_1 *7297:C 0
*END
*D_NET *7298 8.64e-05
*CONN
*I *7299:Y O *D _2296
*I *7300:B I *L 0
*CAP
1 7298_1 8.64e-05
*RES
1 *7299:Y 7298_1 0.56
2 7298_1 *7300:B 0
*END
*D_NET *7301 0.0001632
*CONN
*I *7302:Y O *D _2297
*I *7303:A I *L 0
*CAP
1 7301_1 0.0001632
*RES
1 *7302:Y 7301_1 1.38667
2 7301_1 *7303:A 0
*END
*D_NET *7304 0.0001584
*CONN
*I *7305:Y O *D _2298
*I *7306:C I *L 0
*CAP
1 7304_1 0.0001584
*RES
1 *7305:Y 7304_1 1.02667
2 7304_1 *7306:C 0
*END
*D_NET *7307 0.00017544
*CONN
*I *7308:Y O *D _2299
*I *7309:D I *L 0
*CAP
1 7307_1 0.00017544
*RES
1 *7308:Y 7307_1 2.00667
2 7307_1 *7309:D 0
*END
*D_NET *7310 5.76e-05
*CONN
*I *7311:Y O *D _2300
*I *7312:A I *L 0
*CAP
1 7310_1 5.76e-05
*RES
1 *7311:Y 7310_1 0.373333
2 7310_1 *7312:A 0
*END
*D_NET *7313 0.0002712
*CONN
*I *7314:Y O *D _2302
*I *7315:A I *L 0
*CAP
1 7313_1 0.0002712
*RES
1 *7314:Y 7313_1 4.2
2 7313_1 *7315:A 0
*END
*D_NET *7316 0.0002736
*CONN
*I *7317:Y O *D _2303
*I *7318:C I *L 0
*CAP
1 7316_1 0.0002736
*RES
1 *7317:Y 7316_1 1.77333
2 7316_1 *7318:C 0
*END
*D_NET *7319 8.64e-05
*CONN
*I *7320:Y O *D _2305
*I *7321:B I *L 0
*CAP
1 7319_1 8.64e-05
*RES
1 *7320:Y 7319_1 0.56
2 7319_1 *7321:B 0
*END
*D_NET *7322 9.792e-05
*CONN
*I *7323:Y O *D _2306
*I *7324:A I *L 0
*CAP
1 7322_1 9.792e-05
*RES
1 *7323:Y 7322_1 1.49333
2 7322_1 *7324:A 0
*END
*D_NET *7325 0.00075
*CONN
*I *7326:Y O *D _2307
*I *7327:C I *L 0
*CAP
1 7325_1 0.00075
*RES
1 *7326:Y 7325_1 10.5
2 7325_1 *7327:C 0
*END
*D_NET *7328 0.00015504
*CONN
*I *7329:Y O *D _2308
*I *7330:D I *L 0
*CAP
1 7328_1 0.00015504
*RES
1 *7329:Y 7328_1 3.64
2 7328_1 *7330:D 0
*END
*D_NET *7331 5.76e-05
*CONN
*I *7332:Y O *D _2309
*I *7333:A I *L 0
*CAP
1 7331_1 5.76e-05
*RES
1 *7332:Y 7331_1 0.373333
2 7331_1 *7333:A 0
*END
*D_NET *7334 0.0008532
*CONN
*I *7335:Y O *D _2311
*I *7336:A I *L 0
*CAP
1 7334_1 0.0008532
*RES
1 *7335:Y 7334_1 14.7
2 7334_1 *7336:A 0
*END
*D_NET *7337 0.00069144
*CONN
*I *7338:Y O *D _2312
*I *7339:C I *L 0
*CAP
1 7337_1 0.00069144
*RES
1 *7338:Y 7337_1 8.07333
2 7337_1 *7339:C 0
*END
*D_NET *7340 0.00017544
*CONN
*I *7341:Y O *D _2314
*I *7342:B I *L 0
*CAP
1 7340_1 0.00017544
*RES
1 *7341:Y 7340_1 2.00667
2 7340_1 *7342:B 0
*END
*D_NET *7343 8.64e-05
*CONN
*I *7344:Y O *D _2315
*I *7345:A I *L 0
*CAP
1 7343_1 8.64e-05
*RES
1 *7344:Y 7343_1 0.56
2 7343_1 *7345:A 0
*END
*D_NET *7346 0.00024384
*CONN
*I *7347:Y O *D _2316
*I *7348:C I *L 0
*CAP
1 7346_1 0.00024384
*RES
1 *7347:Y 7346_1 4.10667
2 7346_1 *7348:C 0
*END
*D_NET *7349 0.00017472
*CONN
*I *7350:Y O *D _2317
*I *7351:D I *L 0
*CAP
1 7349_1 0.00017472
*RES
1 *7350:Y 7349_1 4.85333
2 7349_1 *7351:D 0
*END
*D_NET *7352 5.76e-05
*CONN
*I *7353:Y O *D _2318
*I *7354:A I *L 0
*CAP
1 7352_1 5.76e-05
*RES
1 *7353:Y 7352_1 0.373333
2 7352_1 *7354:A 0
*END
*D_NET *7355 0.00036696
*CONN
*I *7356:Y O *D _2320
*I *7357:A I *L 0
*CAP
1 7355_1 0.00036696
*RES
1 *7356:Y 7355_1 4.52667
2 7355_1 *7357:A 0
*END
*D_NET *7358 0.00047472
*CONN
*I *7359:Y O *D _2321
*I *7360:C I *L 0
*CAP
1 7358_1 0.00047472
*RES
1 *7359:Y 7358_1 7.18667
2 7358_1 *7360:C 0
*END
*D_NET *7361 0.00014232
*CONN
*I *7362:Y O *D _2323
*I *7363:B I *L 0
*CAP
1 7361_1 0.00014232
*RES
1 *7362:Y 7361_1 2.28667
2 7361_1 *7363:B 0
*END
*D_NET *7364 0.00014184
*CONN
*I *7365:Y O *D _2324
*I *7366:A I *L 0
*CAP
1 7364_1 0.00014184
*RES
1 *7365:Y 7364_1 2.94
2 7364_1 *7366:A 0
*END
*D_NET *7367 0.00032784
*CONN
*I *7368:Y O *D _2325
*I *7369:C I *L 0
*CAP
1 7367_1 0.00032784
*RES
1 *7368:Y 7367_1 6.44
2 7367_1 *7369:C 0
*END
*D_NET *7370 0.00012768
*CONN
*I *7371:Y O *D _2326
*I *7372:D I *L 0
*CAP
1 7370_1 0.00012768
*RES
1 *7371:Y 7370_1 3.54667
2 7370_1 *7372:D 0
*END
*D_NET *7373 5.76e-05
*CONN
*I *7374:Y O *D _2327
*I *7375:A I *L 0
*CAP
1 7373_1 5.76e-05
*RES
1 *7374:Y 7373_1 0.373333
2 7373_1 *7375:A 0
*END
*D_NET *7376 0.00087504
*CONN
*I *7377:Y O *D _2329
*I *7378:A I *L 0
*CAP
1 7376_1 0.00087504
*RES
1 *7377:Y 7376_1 11.1067
2 7376_1 *7378:A 0
*END
*D_NET *7379 0.00094944
*CONN
*I *7380:Y O *D _2330
*I *7381:C I *L 0
*CAP
1 7379_1 0.00094944
*RES
1 *7380:Y 7379_1 23.7067
2 7379_1 *7381:C 0
*END
*D_NET *7382 0.00027624
*CONN
*I *7383:Y O *D _2332
*I *7384:B I *L 0
*CAP
1 7382_1 0.00027624
*RES
1 *7383:Y 7382_1 3.5
2 7382_1 *7384:B 0
*END
*D_NET *7385 0.00016296
*CONN
*I *7386:Y O *D _2333
*I *7387:A I *L 0
*CAP
1 7385_1 0.00016296
*RES
1 *7386:Y 7385_1 2.19333
2 7385_1 *7387:A 0
*END
*D_NET *7388 0.00053256
*CONN
*I *7389:Y O *D _2334
*I *7390:C I *L 0
*CAP
1 7388_1 0.00053256
*RES
1 *7389:Y 7388_1 5.86
2 7388_1 *7390:C 0
*END
*D_NET *7391 0.0001836
*CONN
*I *7392:Y O *D _2335
*I *7393:D I *L 0
*CAP
1 7391_1 0.0001836
*RES
1 *7392:Y 7391_1 2.1
2 7391_1 *7393:D 0
*END
*D_NET *7394 5.76e-05
*CONN
*I *7395:Y O *D _2336
*I *7396:A I *L 0
*CAP
1 7394_1 5.76e-05
*RES
1 *7395:Y 7394_1 0.373333
2 7394_1 *7396:A 0
*END
*D_NET *7397 0.00038016
*CONN
*I *7398:Y O *D _2338
*I *7399:A I *L 0
*CAP
1 7397_1 0.00038016
*RES
1 *7398:Y 7397_1 5.22667
2 7397_1 *7399:A 0
*END
*D_NET *7400 0.00137304
*CONN
*I *7401:Y O *D _2339
*I *7402:C I *L 0
*CAP
1 7400_1 0.00137304
*RES
1 *7401:Y 7400_1 29.94
2 7400_1 *7402:C 0
*END
*D_NET *7403 8.64e-05
*CONN
*I *7404:Y O *D _2341
*I *7405:B I *L 0
*CAP
1 7403_1 8.64e-05
*RES
1 *7404:Y 7403_1 0.56
2 7403_1 *7405:B 0
*END
*D_NET *7406 8.784e-05
*CONN
*I *7407:Y O *D _2342
*I *7408:A I *L 0
*CAP
1 7406_1 8.784e-05
*RES
1 *7407:Y 7406_1 1.77333
2 7406_1 *7408:A 0
*END
*D_NET *7409 0.00024744
*CONN
*I *7410:Y O *D _2343
*I *7411:C I *L 0
*CAP
1 7409_1 0.00024744
*RES
1 *7410:Y 7409_1 3.31333
2 7409_1 *7411:C 0
*END
*D_NET *7412 0.00015168
*CONN
*I *7413:Y O *D _2344
*I *7414:D I *L 0
*CAP
1 7412_1 0.00015168
*RES
1 *7413:Y 7412_1 2.98667
2 7412_1 *7414:D 0
*END
*D_NET *7415 5.76e-05
*CONN
*I *7416:Y O *D _2345
*I *7417:A I *L 0
*CAP
1 7415_1 5.76e-05
*RES
1 *7416:Y 7415_1 0.373333
2 7415_1 *7417:A 0
*END
*D_NET *7418 0.0008592
*CONN
*I *7419:Y O *D _2347
*I *7420:A I *L 0
*CAP
1 7418_1 0.0008592
*RES
1 *7419:Y 7418_1 7.4
2 7418_1 *7420:A 0
*END
*D_NET *7421 0.0001416
*CONN
*I *7422:Y O *D _2348
*I *7423:C I *L 0
*CAP
1 7421_1 0.0001416
*RES
1 *7422:Y 7421_1 3.26667
2 7421_1 *7423:C 0
*END
*D_NET *7424 8.64e-05
*CONN
*I *7425:Y O *D _2350
*I *7426:B I *L 0
*CAP
1 7424_1 8.64e-05
*RES
1 *7425:Y 7424_1 0.56
2 7424_1 *7426:B 0
*END
*D_NET *7427 0.00028464
*CONN
*I *7428:Y O *D _2351
*I *7429:A I *L 0
*CAP
1 7427_1 0.00028464
*RES
1 *7428:Y 7427_1 4.57333
2 7427_1 *7429:A 0
*END
*D_NET *7430 0.0001584
*CONN
*I *7431:Y O *D _2352
*I *7432:C I *L 0
*CAP
1 7430_1 0.0001584
*RES
1 *7431:Y 7430_1 1.02667
2 7430_1 *7432:C 0
*END
*D_NET *7433 0.00016896
*CONN
*I *7434:Y O *D _2353
*I *7435:D I *L 0
*CAP
1 7433_1 0.00016896
*RES
1 *7434:Y 7433_1 3.36
2 7433_1 *7435:D 0
*END
*D_NET *7436 5.76e-05
*CONN
*I *7437:Y O *D _2354
*I *7438:A I *L 0
*CAP
1 7436_1 5.76e-05
*RES
1 *7437:Y 7436_1 0.373333
2 7436_1 *7438:A 0
*END
*D_NET *7439 0.0003396
*CONN
*I *7440:Y O *D _2356
*I *7441:A I *L 0
*CAP
1 7439_1 0.0003396
*RES
1 *7440:Y 7439_1 3.31333
2 7439_1 *7441:A 0
*END
*D_NET *7442 0.0001584
*CONN
*I *7443:Y O *D _2357
*I *7444:C I *L 0
*CAP
1 7442_1 0.0001584
*RES
1 *7443:Y 7442_1 1.02667
2 7442_1 *7444:C 0
*END
*D_NET *7445 8.64e-05
*CONN
*I *7446:Y O *D _2359
*I *7447:B I *L 0
*CAP
1 7445_1 8.64e-05
*RES
1 *7446:Y 7445_1 0.56
2 7445_1 *7447:B 0
*END
*D_NET *7448 4.704e-05
*CONN
*I *7449:Y O *D _2360
*I *7450:A I *L 0
*CAP
1 7448_1 4.704e-05
*RES
1 *7449:Y 7448_1 1.30667
2 7448_1 *7450:A 0
*END
*D_NET *7451 0.0001584
*CONN
*I *7452:Y O *D _2361
*I *7453:C I *L 0
*CAP
1 7451_1 0.0001584
*RES
1 *7452:Y 7451_1 1.02667
2 7451_1 *7453:C 0
*END
*D_NET *7454 0.00017544
*CONN
*I *7455:Y O *D _2362
*I *7456:D I *L 0
*CAP
1 7454_1 0.00017544
*RES
1 *7455:Y 7454_1 2.00667
2 7454_1 *7456:D 0
*END
*D_NET *7457 5.76e-05
*CONN
*I *7458:Y O *D _2363
*I *7459:A I *L 0
*CAP
1 7457_1 5.76e-05
*RES
1 *7458:Y 7457_1 0.373333
2 7457_1 *7459:A 0
*END
*D_NET *7460 0.00079296
*CONN
*I *7461:Y O *D _2365
*I *7462:A I *L 0
*CAP
1 7460_1 0.00079296
*RES
1 *7461:Y 7460_1 9.52
2 7460_1 *7462:A 0
*END
*D_NET *7463 2.016e-05
*CONN
*I *7464:Y O *D _2366
*I *7465:C I *L 0
*CAP
1 7463_1 2.016e-05
*RES
1 *7464:Y 7463_1 0.56
2 7463_1 *7465:C 0
*END
*D_NET *7466 0.00020352
*CONN
*I *7467:Y O *D _2368
*I *7468:B I *L 0
*CAP
1 7466_1 0.00020352
*RES
1 *7467:Y 7466_1 2.98667
2 7466_1 *7468:B 0
*END
*D_NET *7469 0.00017544
*CONN
*I *7470:Y O *D _2369
*I *7471:A I *L 0
*CAP
1 7469_1 0.00017544
*RES
1 *7470:Y 7469_1 2.00667
2 7469_1 *7471:A 0
*END
*D_NET *7472 2.016e-05
*CONN
*I *7473:Y O *D _2370
*I *7474:C I *L 0
*CAP
1 7472_1 2.016e-05
*RES
1 *7473:Y 7472_1 0.56
2 7472_1 *7474:C 0
*END
*D_NET *7475 0.00014856
*CONN
*I *7476:Y O *D _2371
*I *7477:D I *L 0
*CAP
1 7475_1 0.00014856
*RES
1 *7476:Y 7475_1 3.12667
2 7475_1 *7477:D 0
*END
*D_NET *7478 5.76e-05
*CONN
*I *7479:Y O *D _2372
*I *7480:A I *L 0
*CAP
1 7478_1 5.76e-05
*RES
1 *7479:Y 7478_1 0.373333
2 7478_1 *7480:A 0
*END
*D_NET *7481 0.00069864
*CONN
*I *7482:Y O *D _2374
*I *7483:A I *L 0
*CAP
1 7481_1 0.00069864
*RES
1 *7482:Y 7481_1 8.54
2 7481_1 *7483:A 0
*END
*D_NET *7484 0.00017808
*CONN
*I *7485:Y O *D _2375
*I *7486:C I *L 0
*CAP
1 7484_1 0.00017808
*RES
1 *7485:Y 7484_1 4.94667
2 7484_1 *7486:C 0
*END
*D_NET *7487 8.64e-05
*CONN
*I *7488:Y O *D _2377
*I *7489:B I *L 0
*CAP
1 7487_1 8.64e-05
*RES
1 *7488:Y 7487_1 0.56
2 7487_1 *7489:B 0
*END
*D_NET *7490 8.784e-05
*CONN
*I *7491:Y O *D _2378
*I *7492:A I *L 0
*CAP
1 7490_1 8.784e-05
*RES
1 *7491:Y 7490_1 1.77333
2 7490_1 *7492:A 0
*END
*D_NET *7493 0.0001584
*CONN
*I *7494:Y O *D _2379
*I *7495:C I *L 0
*CAP
1 7493_1 0.0001584
*RES
1 *7494:Y 7493_1 1.02667
2 7493_1 *7495:C 0
*END
*D_NET *7496 0.00034968
*CONN
*I *7497:Y O *D _2380
*I *7498:D I *L 0
*CAP
1 7496_1 0.00034968
*RES
1 *7497:Y 7496_1 4.84667
2 7496_1 *7498:D 0
*END
*D_NET *7499 5.76e-05
*CONN
*I *7500:Y O *D _2381
*I *7501:A I *L 0
*CAP
1 7499_1 5.76e-05
*RES
1 *7500:Y 7499_1 0.373333
2 7499_1 *7501:A 0
*END
*D_NET *7502 0.00031104
*CONN
*I *7503:Y O *D _2383
*I *7504:A I *L 0
*CAP
1 7502_1 0.00031104
*RES
1 *7503:Y 7502_1 5.97333
2 7502_1 *7504:A 0
*END
*D_NET *7505 0.0003648
*CONN
*I *7506:Y O *D _2384
*I *7507:C I *L 0
*CAP
1 7505_1 0.0003648
*RES
1 *7506:Y 7505_1 7.46667
2 7505_1 *7507:C 0
*END
*D_NET *7508 0.00021
*CONN
*I *7509:Y O *D _2386
*I *7510:B I *L 0
*CAP
1 7508_1 0.00021
*RES
1 *7509:Y 7508_1 3.5
2 7508_1 *7510:B 0
*END
*D_NET *7511 7.392e-05
*CONN
*I *7512:Y O *D _2387
*I *7513:A I *L 0
*CAP
1 7511_1 7.392e-05
*RES
1 *7512:Y 7511_1 2.05333
2 7511_1 *7513:A 0
*END
*D_NET *7514 0.00037152
*CONN
*I *7515:Y O *D _2388
*I *7516:C I *L 0
*CAP
1 7514_1 0.00037152
*RES
1 *7515:Y 7514_1 4.48
2 7514_1 *7516:C 0
*END
*D_NET *7517 0.00017616
*CONN
*I *7518:Y O *D _2389
*I *7519:D I *L 0
*CAP
1 7517_1 0.00017616
*RES
1 *7518:Y 7517_1 2.89333
2 7517_1 *7519:D 0
*END
*D_NET *7520 5.76e-05
*CONN
*I *7521:Y O *D _2390
*I *7522:A I *L 0
*CAP
1 7520_1 5.76e-05
*RES
1 *7521:Y 7520_1 0.373333
2 7520_1 *7522:A 0
*END
*D_NET *7523 0.00021624
*CONN
*I *7524:Y O *D _2392
*I *7525:A I *L 0
*CAP
1 7523_1 0.00021624
*RES
1 *7524:Y 7523_1 2.47333
2 7523_1 *7525:A 0
*END
*D_NET *7526 0.00024888
*CONN
*I *7527:Y O *D _2393
*I *7528:C I *L 0
*CAP
1 7526_1 0.00024888
*RES
1 *7527:Y 7526_1 3.40667
2 7526_1 *7528:C 0
*END
*D_NET *7529 0.00031752
*CONN
*I *7530:Y O *D _2395
*I *7531:B I *L 0
*CAP
1 7529_1 0.00031752
*RES
1 *7530:Y 7529_1 6.48667
2 7529_1 *7531:B 0
*END
*D_NET *7532 0.00035112
*CONN
*I *7533:Y O *D _2396
*I *7534:A I *L 0
*CAP
1 7532_1 0.00035112
*RES
1 *7533:Y 7532_1 7.42
2 7532_1 *7534:A 0
*END
*D_NET *7535 0.0001584
*CONN
*I *7536:Y O *D _2397
*I *7537:C I *L 0
*CAP
1 7535_1 0.0001584
*RES
1 *7536:Y 7535_1 1.02667
2 7535_1 *7537:C 0
*END
*D_NET *7538 0.00020976
*CONN
*I *7539:Y O *D _2398
*I *7540:D I *L 0
*CAP
1 7538_1 0.00020976
*RES
1 *7539:Y 7538_1 3.82667
2 7538_1 *7540:D 0
*END
*D_NET *7541 0.00013536
*CONN
*I *7542:Y O *D _2399
*I *7543:A I *L 0
*CAP
1 7541_1 0.00013536
*RES
1 *7542:Y 7541_1 1.12
2 7541_1 *7543:A 0
*END
*D_NET *7544 0.0003264
*CONN
*I *7545:Y O *D _2401
*I *7546:A I *L 0
*CAP
1 7544_1 0.0003264
*RES
1 *7545:Y 7544_1 3.73333
2 7544_1 *7546:A 0
*END
*D_NET *7547 0.00031056
*CONN
*I *7548:Y O *D _2402
*I *7549:C I *L 0
*CAP
1 7547_1 0.00031056
*RES
1 *7548:Y 7547_1 6.62667
2 7547_1 *7549:C 0
*END
*D_NET *7550 0.0002304
*CONN
*I *7551:Y O *D _2404
*I *7552:B I *L 0
*CAP
1 7550_1 0.0002304
*RES
1 *7551:Y 7550_1 3.73333
2 7550_1 *7552:B 0
*END
*D_NET *7553 8.64e-05
*CONN
*I *7554:Y O *D _2405
*I *7555:A I *L 0
*CAP
1 7553_1 8.64e-05
*RES
1 *7554:Y 7553_1 0.56
2 7553_1 *7555:A 0
*END
*D_NET *7556 0.00023472
*CONN
*I *7557:Y O *D _2406
*I *7558:C I *L 0
*CAP
1 7556_1 0.00023472
*RES
1 *7557:Y 7556_1 4.01333
2 7556_1 *7558:C 0
*END
*D_NET *7559 0.00059232
*CONN
*I *7560:Y O *D _2407
*I *7561:D I *L 0
*CAP
1 7559_1 0.00059232
*RES
1 *7560:Y 7559_1 6.72
2 7559_1 *7561:D 0
*END
*D_NET *7562 5.76e-05
*CONN
*I *7563:Y O *D _2408
*I *7564:A I *L 0
*CAP
1 7562_1 5.76e-05
*RES
1 *7563:Y 7562_1 0.373333
2 7562_1 *7564:A 0
*END
*D_NET *7565 0.00066432
*CONN
*I *7566:Y O *D _2410
*I *7567:A I *L 0
*CAP
1 7565_1 0.00066432
*RES
1 *7566:Y 7565_1 8.58667
2 7565_1 *7567:A 0
*END
*D_NET *7568 0.0014868
*CONN
*I *7569:Y O *D _2411
*I *7570:C I *L 0
*CAP
1 7568_1 0.0014868
*RES
1 *7569:Y 7568_1 19.3
2 7568_1 *7570:C 0
*END
*D_NET *7571 8.64e-05
*CONN
*I *7572:Y O *D _2413
*I *7573:B I *L 0
*CAP
1 7571_1 8.64e-05
*RES
1 *7572:Y 7571_1 0.56
2 7571_1 *7573:B 0
*END
*D_NET *7574 9.792e-05
*CONN
*I *7575:Y O *D _2414
*I *7576:A I *L 0
*CAP
1 7574_1 9.792e-05
*RES
1 *7575:Y 7574_1 1.49333
2 7574_1 *7576:A 0
*END
*D_NET *7577 0.0001584
*CONN
*I *7578:Y O *D _2415
*I *7579:C I *L 0
*CAP
1 7577_1 0.0001584
*RES
1 *7578:Y 7577_1 1.02667
2 7577_1 *7579:C 0
*END
*D_NET *7580 0.00016296
*CONN
*I *7581:Y O *D _2416
*I *7582:D I *L 0
*CAP
1 7580_1 0.00016296
*RES
1 *7581:Y 7580_1 2.19333
2 7580_1 *7582:D 0
*END
*D_NET *7583 0.00027648
*CONN
*I *7584:Y O *D _2417
*I *7585:A I *L 0
*CAP
1 7583_1 0.00027648
*RES
1 *7584:Y 7583_1 3.17333
2 7583_1 *7585:A 0
*END
*D_NET *7586 0.00042744
*CONN
*I *7587:Y O *D _2419
*I *7588:A I *L 0
*CAP
1 7586_1 0.00042744
*RES
1 *7587:Y 7586_1 6.20667
2 7586_1 *7588:A 0
*END
*D_NET *7589 0.00032472
*CONN
*I *7590:Y O *D _2420
*I *7591:C I *L 0
*CAP
1 7589_1 0.00032472
*RES
1 *7590:Y 7589_1 6.02
2 7589_1 *7591:C 0
*END
*D_NET *7592 8.64e-05
*CONN
*I *7593:Y O *D _2422
*I *7594:B I *L 0
*CAP
1 7592_1 8.64e-05
*RES
1 *7593:Y 7592_1 0.56
2 7592_1 *7594:B 0
*END
*D_NET *7595 8.784e-05
*CONN
*I *7596:Y O *D _2423
*I *7597:A I *L 0
*CAP
1 7595_1 8.784e-05
*RES
1 *7596:Y 7595_1 1.77333
2 7595_1 *7597:A 0
*END
*D_NET *7598 0.00064512
*CONN
*I *7599:Y O *D _2424
*I *7600:C I *L 0
*CAP
1 7598_1 0.00064512
*RES
1 *7599:Y 7598_1 8.58667
2 7598_1 *7600:C 0
*END
*D_NET *7601 0.00019656
*CONN
*I *7602:Y O *D _2425
*I *7603:D I *L 0
*CAP
1 7601_1 0.00019656
*RES
1 *7602:Y 7601_1 3.12667
2 7601_1 *7603:D 0
*END
*D_NET *7604 0.00020376
*CONN
*I *7605:Y O *D _2426
*I *7606:A I *L 0
*CAP
1 7604_1 0.00020376
*RES
1 *7605:Y 7604_1 2.66
2 7604_1 *7606:A 0
*END
*D_NET *7607 0.00058344
*CONN
*I *7608:Y O *D _2428
*I *7609:A I *L 0
*CAP
1 7607_1 0.00058344
*RES
1 *7608:Y 7607_1 6.67333
2 7607_1 *7609:A 0
*END
*D_NET *7610 0.00036696
*CONN
*I *7611:Y O *D _2429
*I *7612:C I *L 0
*CAP
1 7610_1 0.00036696
*RES
1 *7611:Y 7610_1 4.52667
2 7610_1 *7612:C 0
*END
*D_NET *7613 8.64e-05
*CONN
*I *7614:Y O *D _2431
*I *7615:B I *L 0
*CAP
1 7613_1 8.64e-05
*RES
1 *7614:Y 7613_1 0.56
2 7613_1 *7615:B 0
*END
*D_NET *7616 4.704e-05
*CONN
*I *7617:Y O *D _2432
*I *7618:A I *L 0
*CAP
1 7616_1 4.704e-05
*RES
1 *7617:Y 7616_1 1.30667
2 7616_1 *7618:A 0
*END
*D_NET *7619 0.00017952
*CONN
*I *7620:Y O *D _2433
*I *7621:C I *L 0
*CAP
1 7619_1 0.00017952
*RES
1 *7620:Y 7619_1 2.42667
2 7619_1 *7621:C 0
*END
*D_NET *7622 0.0001008
*CONN
*I *7623:Y O *D _2434
*I *7624:D I *L 0
*CAP
1 7622_1 0.0001008
*RES
1 *7623:Y 7622_1 2.8
2 7622_1 *7624:D 0
*END
*D_NET *7625 5.76e-05
*CONN
*I *7626:Y O *D _2435
*I *7627:A I *L 0
*CAP
1 7625_1 5.76e-05
*RES
1 *7626:Y 7625_1 0.373333
2 7625_1 *7627:A 0
*END
*D_NET *7628 0.00102552
*CONN
*I *7629:Y O *D _2437
*I *7630:A I *L 0
*CAP
1 7628_1 0.00102552
*RES
1 *7629:Y 7628_1 11.9933
2 7628_1 *7630:A 0
*END
*D_NET *7631 0.0003528
*CONN
*I *7632:Y O *D _2438
*I *7633:C I *L 0
*CAP
1 7631_1 0.0003528
*RES
1 *7632:Y 7631_1 4.4
2 7631_1 *7633:C 0
*END
*D_NET *7634 8.64e-05
*CONN
*I *7635:Y O *D _2440
*I *7636:B I *L 0
*CAP
1 7634_1 8.64e-05
*RES
1 *7635:Y 7634_1 0.56
2 7634_1 *7636:B 0
*END
*D_NET *7637 8.784e-05
*CONN
*I *7638:Y O *D _2441
*I *7639:A I *L 0
*CAP
1 7637_1 8.784e-05
*RES
1 *7638:Y 7637_1 1.77333
2 7637_1 *7639:A 0
*END
*D_NET *7640 0.00046992
*CONN
*I *7641:Y O *D _2442
*I *7642:C I *L 0
*CAP
1 7640_1 0.00046992
*RES
1 *7641:Y 7640_1 10.5467
2 7640_1 *7642:C 0
*END
*D_NET *7643 0.00016968
*CONN
*I *7644:Y O *D _2443
*I *7645:D I *L 0
*CAP
1 7643_1 0.00016968
*RES
1 *7644:Y 7643_1 2.38
2 7643_1 *7645:D 0
*END
*D_NET *7646 5.76e-05
*CONN
*I *7647:Y O *D _2444
*I *7648:A I *L 0
*CAP
1 7646_1 5.76e-05
*RES
1 *7647:Y 7646_1 0.373333
2 7646_1 *7648:A 0
*END
*D_NET *7649 5.76e-05
*CONN
*I *7650:Y O *D _2446
*I *7651:A I *L 0
*CAP
1 7649_1 5.76e-05
*RES
1 *7650:Y 7649_1 0.373333
2 7649_1 *7651:A 0
*END
*D_NET *7652 0.00151896
*CONN
*I *7653:Y O *D _2447
*I *7654:C I *L 0
*CAP
1 7652_1 0.00151896
*RES
1 *7653:Y 7652_1 17.3933
2 7652_1 *7654:C 0
*END
*D_NET *7655 8.64e-05
*CONN
*I *7656:Y O *D _2449
*I *7657:B I *L 0
*CAP
1 7655_1 8.64e-05
*RES
1 *7656:Y 7655_1 0.56
2 7655_1 *7657:B 0
*END
*D_NET *7658 0.00018384
*CONN
*I *7659:Y O *D _2450
*I *7660:A I *L 0
*CAP
1 7658_1 0.00018384
*RES
1 *7659:Y 7658_1 2.14667
2 7658_1 *7660:A 0
*END
*D_NET *7661 0.0004548
*CONN
*I *7662:Y O *D _2451
*I *7663:C I *L 0
*CAP
1 7661_1 0.0004548
*RES
1 *7662:Y 7661_1 6.3
2 7661_1 *7663:C 0
*END
*D_NET *7664 0.00012768
*CONN
*I *7665:Y O *D _2452
*I *7666:D I *L 0
*CAP
1 7664_1 0.00012768
*RES
1 *7665:Y 7664_1 3.54667
2 7664_1 *7666:D 0
*END
*D_NET *7667 0.0001224
*CONN
*I *7668:Y O *D _2453
*I *7669:A I *L 0
*CAP
1 7667_1 0.0001224
*RES
1 *7668:Y 7667_1 1.4
2 7667_1 *7669:A 0
*END
*D_NET *7670 0.00043728
*CONN
*I *7671:Y O *D _2455
*I *7672:A I *L 0
*CAP
1 7670_1 0.00043728
*RES
1 *7671:Y 7670_1 7.74667
2 7670_1 *7672:A 0
*END
*D_NET *7673 9.384e-05
*CONN
*I *7674:Y O *D _2456
*I *7675:C I *L 0
*CAP
1 7673_1 9.384e-05
*RES
1 *7674:Y 7673_1 1.07333
2 7673_1 *7675:C 0
*END
*D_NET *7676 0.00012864
*CONN
*I *7677:Y O *D _2458
*I *7678:B I *L 0
*CAP
1 7676_1 0.00012864
*RES
1 *7677:Y 7676_1 2.24
2 7676_1 *7678:B 0
*END
*D_NET *7679 7.392e-05
*CONN
*I *7680:Y O *D _2459
*I *7681:A I *L 0
*CAP
1 7679_1 7.392e-05
*RES
1 *7680:Y 7679_1 2.05333
2 7679_1 *7681:A 0
*END
*D_NET *7682 0.00060792
*CONN
*I *7683:Y O *D _2460
*I *7684:C I *L 0
*CAP
1 7682_1 0.00060792
*RES
1 *7683:Y 7682_1 12.5533
2 7682_1 *7684:C 0
*END
*D_NET *7685 0.00034536
*CONN
*I *7686:Y O *D _2461
*I *7687:D I *L 0
*CAP
1 7685_1 0.00034536
*RES
1 *7686:Y 7685_1 5.92667
2 7685_1 *7687:D 0
*END
*D_NET *7688 0.00017544
*CONN
*I *7689:Y O *D _2462
*I *7690:A I *L 0
*CAP
1 7688_1 0.00017544
*RES
1 *7689:Y 7688_1 2.00667
2 7688_1 *7690:A 0
*END
*D_NET *7691 0.00030624
*CONN
*I *7692:Y O *D _2464
*I *7693:A I *L 0
*CAP
1 7691_1 0.00030624
*RES
1 *7692:Y 7691_1 3.50667
2 7691_1 *7693:A 0
*END
*D_NET *7694 0.00012144
*CONN
*I *7695:Y O *D _2465
*I *7696:C I *L 0
*CAP
1 7694_1 0.00012144
*RES
1 *7695:Y 7694_1 2.70667
2 7694_1 *7696:C 0
*END
*D_NET *7697 8.64e-05
*CONN
*I *7698:Y O *D _2467
*I *7699:B I *L 0
*CAP
1 7697_1 8.64e-05
*RES
1 *7698:Y 7697_1 0.56
2 7697_1 *7699:B 0
*END
*D_NET *7700 9.792e-05
*CONN
*I *7701:Y O *D _2468
*I *7702:A I *L 0
*CAP
1 7700_1 9.792e-05
*RES
1 *7701:Y 7700_1 1.49333
2 7700_1 *7702:A 0
*END
*D_NET *7703 0.00046104
*CONN
*I *7704:Y O *D _2469
*I *7705:C I *L 0
*CAP
1 7703_1 0.00046104
*RES
1 *7704:Y 7703_1 5.27333
2 7703_1 *7705:C 0
*END
*D_NET *7706 0.00023688
*CONN
*I *7707:Y O *D _2470
*I *7708:D I *L 0
*CAP
1 7706_1 0.00023688
*RES
1 *7707:Y 7706_1 4.24667
2 7706_1 *7708:D 0
*END
*D_NET *7709 0.0001776
*CONN
*I *7710:Y O *D _2471
*I *7711:A I *L 0
*CAP
1 7709_1 0.0001776
*RES
1 *7710:Y 7709_1 1.86667
2 7709_1 *7711:A 0
*END
*D_NET *7712 5.76e-05
*CONN
*I *7713:Y O *D _2473
*I *7714:A I *L 0
*CAP
1 7712_1 5.76e-05
*RES
1 *7713:Y 7712_1 0.373333
2 7712_1 *7714:A 0
*END
*D_NET *7715 0.0006588
*CONN
*I *7716:Y O *D _2474
*I *7717:C I *L 0
*CAP
1 7715_1 0.0006588
*RES
1 *7716:Y 7715_1 8.63333
2 7715_1 *7717:C 0
*END
*D_NET *7718 8.64e-05
*CONN
*I *7719:Y O *D _2476
*I *7720:B I *L 0
*CAP
1 7718_1 8.64e-05
*RES
1 *7719:Y 7718_1 0.56
2 7718_1 *7720:B 0
*END
*D_NET *7721 8.784e-05
*CONN
*I *7722:Y O *D _2477
*I *7723:A I *L 0
*CAP
1 7721_1 8.784e-05
*RES
1 *7722:Y 7721_1 1.77333
2 7721_1 *7723:A 0
*END
*D_NET *7724 0.0002424
*CONN
*I *7725:Y O *D _2478
*I *7726:C I *L 0
*CAP
1 7724_1 0.0002424
*RES
1 *7725:Y 7724_1 6.06667
2 7724_1 *7726:C 0
*END
*D_NET *7727 0.00025752
*CONN
*I *7728:Y O *D _2479
*I *7729:D I *L 0
*CAP
1 7727_1 0.00025752
*RES
1 *7728:Y 7727_1 4.15333
2 7727_1 *7729:D 0
*END
*D_NET *7730 5.76e-05
*CONN
*I *7731:Y O *D _2480
*I *7732:A I *L 0
*CAP
1 7730_1 5.76e-05
*RES
1 *7731:Y 7730_1 0.373333
2 7730_1 *7732:A 0
*END
*D_NET *7733 0.00015504
*CONN
*I *7734:Y O *D _2482
*I *7735:A I *L 0
*CAP
1 7733_1 0.00015504
*RES
1 *7734:Y 7733_1 1.77333
2 7733_1 *7735:A 0
*END
*D_NET *7736 0.00041952
*CONN
*I *7737:Y O *D _2483
*I *7738:C I *L 0
*CAP
1 7736_1 0.00041952
*RES
1 *7737:Y 7736_1 7.65333
2 7736_1 *7738:C 0
*END
*D_NET *7739 6.048e-05
*CONN
*I *7740:Y O *D _2485
*I *7741:B I *L 0
*CAP
1 7739_1 6.048e-05
*RES
1 *7740:Y 7739_1 1.68
2 7739_1 *7741:B 0
*END
*D_NET *7742 8.64e-05
*CONN
*I *7743:Y O *D _2486
*I *7744:A I *L 0
*CAP
1 7742_1 8.64e-05
*RES
1 *7743:Y 7742_1 0.56
2 7742_1 *7744:A 0
*END
*D_NET *7745 0.0001584
*CONN
*I *7746:Y O *D _2487
*I *7747:C I *L 0
*CAP
1 7745_1 0.0001584
*RES
1 *7746:Y 7745_1 1.02667
2 7745_1 *7747:C 0
*END
*D_NET *7748 0.00019656
*CONN
*I *7749:Y O *D _2488
*I *7750:D I *L 0
*CAP
1 7748_1 0.00019656
*RES
1 *7749:Y 7748_1 3.12667
2 7748_1 *7750:D 0
*END
*D_NET *7751 5.76e-05
*CONN
*I *7752:Y O *D _2489
*I *7753:A I *L 0
*CAP
1 7751_1 5.76e-05
*RES
1 *7752:Y 7751_1 0.373333
2 7751_1 *7753:A 0
*END
*D_NET *7754 2.688e-05
*CONN
*I *7755:Y O *D _2491
*I *7756:A I *L 0
*CAP
1 7754_1 2.688e-05
*RES
1 *7755:Y 7754_1 0.746667
2 7754_1 *7756:A 0
*END
*D_NET *7757 2.016e-05
*CONN
*I *7758:Y O *D _2492
*I *7759:C I *L 0
*CAP
1 7757_1 2.016e-05
*RES
1 *7758:Y 7757_1 0.56
2 7757_1 *7759:C 0
*END
*D_NET *7760 8.64e-05
*CONN
*I *7761:Y O *D _2494
*I *7762:B I *L 0
*CAP
1 7760_1 8.64e-05
*RES
1 *7761:Y 7760_1 0.56
2 7760_1 *7762:B 0
*END
*D_NET *7763 0.00023064
*CONN
*I *7764:Y O *D _2495
*I *7765:A I *L 0
*CAP
1 7763_1 0.00023064
*RES
1 *7764:Y 7763_1 3.40667
2 7763_1 *7765:A 0
*END
*D_NET *7766 0.0001584
*CONN
*I *7767:Y O *D _2496
*I *7768:C I *L 0
*CAP
1 7766_1 0.0001584
*RES
1 *7767:Y 7766_1 1.02667
2 7766_1 *7768:C 0
*END
*D_NET *7769 0.00033144
*CONN
*I *7770:Y O *D _2497
*I *7771:D I *L 0
*CAP
1 7769_1 0.00033144
*RES
1 *7770:Y 7769_1 6.20667
2 7769_1 *7771:D 0
*END
*D_NET *7772 8.64e-05
*CONN
*I *7773:Y O *D _2498
*I *7774:A I *L 0
*CAP
1 7772_1 8.64e-05
*RES
1 *7773:Y 7772_1 0.56
2 7772_1 *7774:A 0
*END
*D_NET *7775 6.768e-05
*CONN
*I *7776:Y O *D _2500
*I *7777:A I *L 0
*CAP
1 7775_1 6.768e-05
*RES
1 *7776:Y 7775_1 1.21333
2 7775_1 *7777:A 0
*END
*D_NET *7778 0.0002244
*CONN
*I *7779:Y O *D _2501
*I *7780:C I *L 0
*CAP
1 7778_1 0.0002244
*RES
1 *7779:Y 7778_1 2.56667
2 7778_1 *7780:C 0
*END
*D_NET *7781 8.64e-05
*CONN
*I *7782:Y O *D _2503
*I *7783:B I *L 0
*CAP
1 7781_1 8.64e-05
*RES
1 *7782:Y 7781_1 0.56
2 7781_1 *7783:B 0
*END
*D_NET *7784 4.704e-05
*CONN
*I *7785:Y O *D _2504
*I *7786:A I *L 0
*CAP
1 7784_1 4.704e-05
*RES
1 *7785:Y 7784_1 1.30667
2 7784_1 *7786:A 0
*END
*D_NET *7787 0.00012864
*CONN
*I *7788:Y O *D _2505
*I *7789:C I *L 0
*CAP
1 7787_1 0.00012864
*RES
1 *7788:Y 7787_1 2.24
2 7787_1 *7789:C 0
*END
*D_NET *7790 0.00026688
*CONN
*I *7791:Y O *D _2506
*I *7792:D I *L 0
*CAP
1 7790_1 0.00026688
*RES
1 *7791:Y 7790_1 3.73333
2 7790_1 *7792:D 0
*END
*D_NET *7793 5.76e-05
*CONN
*I *7794:Y O *D _2507
*I *7795:A I *L 0
*CAP
1 7793_1 5.76e-05
*RES
1 *7794:Y 7793_1 0.373333
2 7793_1 *7795:A 0
*END
*D_NET *7796 0.00015504
*CONN
*I *7797:Y O *D _2509
*I *7798:A I *L 0
*CAP
1 7796_1 0.00015504
*RES
1 *7797:Y 7796_1 1.77333
2 7796_1 *7798:A 0
*END
*D_NET *7799 0.00029088
*CONN
*I *7800:Y O *D _2510
*I *7801:C I *L 0
*CAP
1 7799_1 0.00029088
*RES
1 *7800:Y 7799_1 5.41333
2 7799_1 *7801:C 0
*END
*D_NET *7802 0.00016296
*CONN
*I *7803:Y O *D _2512
*I *7804:B I *L 0
*CAP
1 7802_1 0.00016296
*RES
1 *7803:Y 7802_1 2.19333
2 7802_1 *7804:B 0
*END
*D_NET *7805 0.00018984
*CONN
*I *7806:Y O *D _2513
*I *7807:A I *L 0
*CAP
1 7805_1 0.00018984
*RES
1 *7806:Y 7805_1 2.94
2 7805_1 *7807:A 0
*END
*D_NET *7808 0.0001584
*CONN
*I *7809:Y O *D _2514
*I *7810:C I *L 0
*CAP
1 7808_1 0.0001584
*RES
1 *7809:Y 7808_1 1.02667
2 7808_1 *7810:C 0
*END
*D_NET *7811 9.408e-05
*CONN
*I *7812:Y O *D _2515
*I *7813:D I *L 0
*CAP
1 7811_1 9.408e-05
*RES
1 *7812:Y 7811_1 2.61333
2 7811_1 *7813:D 0
*END
*D_NET *7814 0.00027336
*CONN
*I *7815:Y O *D _2516
*I *7816:A I *L 0
*CAP
1 7814_1 0.00027336
*RES
1 *7815:Y 7814_1 5.36667
2 7814_1 *7816:A 0
*END
*D_NET *7817 0.00065736
*CONN
*I *7818:Y O *D _2518
*I *7819:A I *L 0
*CAP
1 7817_1 0.00065736
*RES
1 *7818:Y 7817_1 8.72667
2 7817_1 *7819:A 0
*END
*D_NET *7820 0.00145512
*CONN
*I *7821:Y O *D _2519
*I *7822:C I *L 0
*CAP
1 7820_1 0.00145512
*RES
1 *7821:Y 7820_1 17.6867
2 7820_1 *7822:C 0
*END
*D_NET *7823 8.64e-05
*CONN
*I *7824:Y O *D _2521
*I *7825:B I *L 0
*CAP
1 7823_1 8.64e-05
*RES
1 *7824:Y 7823_1 0.56
2 7823_1 *7825:B 0
*END
*D_NET *7826 8.784e-05
*CONN
*I *7827:Y O *D _2522
*I *7828:A I *L 0
*CAP
1 7826_1 8.784e-05
*RES
1 *7827:Y 7826_1 1.77333
2 7826_1 *7828:A 0
*END
*D_NET *7829 0.0001584
*CONN
*I *7830:Y O *D _2523
*I *7831:C I *L 0
*CAP
1 7829_1 0.0001584
*RES
1 *7830:Y 7829_1 1.02667
2 7829_1 *7831:C 0
*END
*D_NET *7832 8.064e-05
*CONN
*I *7833:Y O *D _2524
*I *7834:D I *L 0
*CAP
1 7832_1 8.064e-05
*RES
1 *7833:Y 7832_1 2.24
2 7832_1 *7834:D 0
*END
*D_NET *7835 5.76e-05
*CONN
*I *7836:Y O *D _2525
*I *7837:A I *L 0
*CAP
1 7835_1 5.76e-05
*RES
1 *7836:Y 7835_1 0.373333
2 7835_1 *7837:A 0
*END
*D_NET *7838 0.00034416
*CONN
*I *7839:Y O *D _2527
*I *7840:A I *L 0
*CAP
1 7838_1 0.00034416
*RES
1 *7839:Y 7838_1 7.56
2 7838_1 *7840:A 0
*END
*D_NET *7841 0.001218
*CONN
*I *7842:Y O *D _2528
*I *7843:C I *L 0
*CAP
1 7841_1 0.001218
*RES
1 *7842:Y 7841_1 18.9667
2 7841_1 *7843:C 0
*END
*D_NET *7844 0.00020352
*CONN
*I *7845:Y O *D _2530
*I *7846:B I *L 0
*CAP
1 7844_1 0.00020352
*RES
1 *7845:Y 7844_1 2.98667
2 7844_1 *7846:B 0
*END
*D_NET *7847 0.00015504
*CONN
*I *7848:Y O *D _2531
*I *7849:A I *L 0
*CAP
1 7847_1 0.00015504
*RES
1 *7848:Y 7847_1 1.77333
2 7847_1 *7849:A 0
*END
*D_NET *7850 2.016e-05
*CONN
*I *7851:Y O *D _2532
*I *7852:C I *L 0
*CAP
1 7850_1 2.016e-05
*RES
1 *7851:Y 7850_1 0.56
2 7850_1 *7852:C 0
*END
*D_NET *7853 9.408e-05
*CONN
*I *7854:Y O *D _2533
*I *7855:D I *L 0
*CAP
1 7853_1 9.408e-05
*RES
1 *7854:Y 7853_1 2.61333
2 7853_1 *7855:D 0
*END
*D_NET *7856 5.76e-05
*CONN
*I *7857:Y O *D _2534
*I *7858:A I *L 0
*CAP
1 7856_1 5.76e-05
*RES
1 *7857:Y 7856_1 0.373333
2 7856_1 *7858:A 0
*END
*D_NET *7859 5.76e-05
*CONN
*I *7860:Y O *D _2536
*I *7861:A I *L 0
*CAP
1 7859_1 5.76e-05
*RES
1 *7860:Y 7859_1 0.373333
2 7859_1 *7861:A 0
*END
*D_NET *7862 0.00082944
*CONN
*I *7863:Y O *D _2537
*I *7864:C I *L 0
*CAP
1 7862_1 0.00082944
*RES
1 *7863:Y 7862_1 9.34667
2 7862_1 *7864:C 0
*END
*D_NET *7865 8.448e-05
*CONN
*I *7866:Y O *D _2539
*I *7867:B I *L 0
*CAP
1 7865_1 8.448e-05
*RES
1 *7866:Y 7865_1 1.12
2 7865_1 *7867:B 0
*END
*D_NET *7868 0.0001248
*CONN
*I *7869:Y O *D _2540
*I *7870:A I *L 0
*CAP
1 7868_1 0.0001248
*RES
1 *7869:Y 7868_1 2.24
2 7868_1 *7870:A 0
*END
*D_NET *7871 0.0001584
*CONN
*I *7872:Y O *D _2541
*I *7873:C I *L 0
*CAP
1 7871_1 0.0001584
*RES
1 *7872:Y 7871_1 1.02667
2 7871_1 *7873:C 0
*END
*D_NET *7874 0.00024432
*CONN
*I *7875:Y O *D _2542
*I *7876:D I *L 0
*CAP
1 7874_1 0.00024432
*RES
1 *7875:Y 7874_1 3.45333
2 7874_1 *7876:D 0
*END
*D_NET *7877 5.76e-05
*CONN
*I *7878:Y O *D _2543
*I *7879:A I *L 0
*CAP
1 7877_1 5.76e-05
*RES
1 *7878:Y 7877_1 0.373333
2 7877_1 *7879:A 0
*END
*D_NET *7880 0.00025776
*CONN
*I *7881:Y O *D _2545
*I *7882:A I *L 0
*CAP
1 7880_1 0.00025776
*RES
1 *7881:Y 7880_1 3.82667
2 7880_1 *7882:A 0
*END
*D_NET *7883 0.00075528
*CONN
*I *7884:Y O *D _2546
*I *7885:C I *L 0
*CAP
1 7883_1 0.00075528
*RES
1 *7884:Y 7883_1 9.1
2 7883_1 *7885:C 0
*END
*D_NET *7886 8.64e-05
*CONN
*I *7887:Y O *D _2548
*I *7888:B I *L 0
*CAP
1 7886_1 8.64e-05
*RES
1 *7887:Y 7886_1 0.56
2 7886_1 *7888:B 0
*END
*D_NET *7889 7.392e-05
*CONN
*I *7890:Y O *D _2549
*I *7891:A I *L 0
*CAP
1 7889_1 7.392e-05
*RES
1 *7890:Y 7889_1 2.05333
2 7889_1 *7891:A 0
*END
*D_NET *7892 0.0001584
*CONN
*I *7893:Y O *D _2550
*I *7894:C I *L 0
*CAP
1 7892_1 0.0001584
*RES
1 *7893:Y 7892_1 1.02667
2 7892_1 *7894:C 0
*END
*D_NET *7895 0.00013488
*CONN
*I *7896:Y O *D _2551
*I *7897:D I *L 0
*CAP
1 7895_1 0.00013488
*RES
1 *7896:Y 7895_1 3.08
2 7895_1 *7897:D 0
*END
*D_NET *7898 0.00035496
*CONN
*I *7899:Y O *D _2552
*I *7900:A I *L 0
*CAP
1 7898_1 0.00035496
*RES
1 *7899:Y 7898_1 6.86
2 7898_1 *7900:A 0
*END
*D_NET *7901 0.00043344
*CONN
*I *7902:Y O *D _2554
*I *7903:A I *L 0
*CAP
1 7901_1 0.00043344
*RES
1 *7902:Y 7901_1 3.84
2 7901_1 *7903:A 0
*END
*D_NET *7904 0.0001584
*CONN
*I *7905:Y O *D _2555
*I *7906:C I *L 0
*CAP
1 7904_1 0.0001584
*RES
1 *7905:Y 7904_1 1.02667
2 7904_1 *7906:C 0
*END
*D_NET *7907 8.64e-05
*CONN
*I *7908:Y O *D _2557
*I *7909:B I *L 0
*CAP
1 7907_1 8.64e-05
*RES
1 *7908:Y 7907_1 0.56
2 7907_1 *7909:B 0
*END
*D_NET *7910 0.00010824
*CONN
*I *7911:Y O *D _2558
*I *7912:A I *L 0
*CAP
1 7910_1 0.00010824
*RES
1 *7911:Y 7910_1 2.00667
2 7910_1 *7912:A 0
*END
*D_NET *7913 0.00038424
*CONN
*I *7914:Y O *D _2559
*I *7915:C I *L 0
*CAP
1 7913_1 0.00038424
*RES
1 *7914:Y 7913_1 3.96667
2 7913_1 *7915:C 0
*END
*D_NET *7916 0.0002112
*CONN
*I *7917:Y O *D _2560
*I *7918:D I *L 0
*CAP
1 7916_1 0.0002112
*RES
1 *7917:Y 7916_1 2.8
2 7916_1 *7918:D 0
*END
*D_NET *7919 5.76e-05
*CONN
*I *7920:Y O *D _2561
*I *7921:A I *L 0
*CAP
1 7919_1 5.76e-05
*RES
1 *7920:Y 7919_1 0.373333
2 7919_1 *7921:A 0
*END
*D_NET *7922 0.00044088
*CONN
*I *7923:Y O *D _2563
*I *7924:A I *L 0
*CAP
1 7922_1 0.00044088
*RES
1 *7923:Y 7922_1 6.58
2 7922_1 *7924:A 0
*END
*D_NET *7925 7.056e-05
*CONN
*I *7926:Y O *D _2564
*I *7927:C I *L 0
*CAP
1 7925_1 7.056e-05
*RES
1 *7926:Y 7925_1 1.96
2 7925_1 *7927:C 0
*END
*D_NET *7928 0.001656
*CONN
*I *7929:Y O *D _2566
*I *7930:B I *L 0
*CAP
1 7928_1 0.001656
*RES
1 *7929:Y 7928_1 21.8667
2 7928_1 *7930:B 0
*END
*D_NET *7931 8.64e-05
*CONN
*I *7932:Y O *D _2567
*I *7933:A I *L 0
*CAP
1 7931_1 8.64e-05
*RES
1 *7932:Y 7931_1 0.56
2 7931_1 *7933:A 0
*END
*D_NET *7934 0.00065784
*CONN
*I *7935:Y O *D _2568
*I *7936:C I *L 0
*CAP
1 7934_1 0.00065784
*RES
1 *7935:Y 7934_1 8.54
2 7934_1 *7936:C 0
*END
*D_NET *7937 0.00038184
*CONN
*I *7938:Y O *D _2569
*I *7939:D I *L 0
*CAP
1 7937_1 0.00038184
*RES
1 *7938:Y 7937_1 7.60667
2 7937_1 *7939:D 0
*END
*D_NET *7940 5.76e-05
*CONN
*I *7941:Y O *D _2570
*I *7942:A I *L 0
*CAP
1 7940_1 5.76e-05
*RES
1 *7941:Y 7940_1 0.373333
2 7940_1 *7942:A 0
*END
*D_NET *7943 0.0001836
*CONN
*I *7944:Y O *D _2572
*I *7945:A I *L 0
*CAP
1 7943_1 0.0001836
*RES
1 *7944:Y 7943_1 2.1
2 7943_1 *7945:A 0
*END
*D_NET *7946 4.704e-05
*CONN
*I *7947:Y O *D _2573
*I *7948:C I *L 0
*CAP
1 7946_1 4.704e-05
*RES
1 *7947:Y 7946_1 1.30667
2 7946_1 *7948:C 0
*END
*D_NET *7949 8.64e-05
*CONN
*I *7950:Y O *D _2575
*I *7951:B I *L 0
*CAP
1 7949_1 8.64e-05
*RES
1 *7950:Y 7949_1 0.56
2 7949_1 *7951:B 0
*END
*D_NET *7952 0.00010824
*CONN
*I *7953:Y O *D _2576
*I *7954:A I *L 0
*CAP
1 7952_1 0.00010824
*RES
1 *7953:Y 7952_1 2.00667
2 7952_1 *7954:A 0
*END
*D_NET *7955 0.00044016
*CONN
*I *7956:Y O *D _2577
*I *7957:C I *L 0
*CAP
1 7955_1 0.00044016
*RES
1 *7956:Y 7955_1 5.69333
2 7955_1 *7957:C 0
*END
*D_NET *7958 0.00018216
*CONN
*I *7959:Y O *D _2578
*I *7960:D I *L 0
*CAP
1 7958_1 0.00018216
*RES
1 *7959:Y 7958_1 4.06
2 7958_1 *7960:D 0
*END
*D_NET *7961 5.76e-05
*CONN
*I *7962:Y O *D _2579
*I *7963:A I *L 0
*CAP
1 7961_1 5.76e-05
*RES
1 *7962:Y 7961_1 0.373333
2 7961_1 *7963:A 0
*END
*D_NET *7964 0.00027528
*CONN
*I *7965:Y O *D _2581
*I *7966:A I *L 0
*CAP
1 7964_1 0.00027528
*RES
1 *7965:Y 7964_1 3.11333
2 7964_1 *7966:A 0
*END
*D_NET *7967 0.00056832
*CONN
*I *7968:Y O *D _2582
*I *7969:C I *L 0
*CAP
1 7967_1 0.00056832
*RES
1 *7968:Y 7967_1 15.12
2 7967_1 *7969:C 0
*END
*D_NET *7970 0.00017544
*CONN
*I *7971:Y O *D _2584
*I *7972:B I *L 0
*CAP
1 7970_1 0.00017544
*RES
1 *7971:Y 7970_1 2.00667
2 7970_1 *7972:B 0
*END
*D_NET *7973 0.00016968
*CONN
*I *7974:Y O *D _2585
*I *7975:A I *L 0
*CAP
1 7973_1 0.00016968
*RES
1 *7974:Y 7973_1 2.38
2 7973_1 *7975:A 0
*END
*D_NET *7976 0.00018984
*CONN
*I *7977:Y O *D _2586
*I *7978:C I *L 0
*CAP
1 7976_1 0.00018984
*RES
1 *7977:Y 7976_1 2.94
2 7976_1 *7978:C 0
*END
*D_NET *7979 0.00029088
*CONN
*I *7980:Y O *D _2587
*I *7981:D I *L 0
*CAP
1 7979_1 0.00029088
*RES
1 *7980:Y 7979_1 5.41333
2 7979_1 *7981:D 0
*END
*D_NET *7982 5.76e-05
*CONN
*I *7983:Y O *D _2588
*I *7984:A I *L 0
*CAP
1 7982_1 5.76e-05
*RES
1 *7983:Y 7982_1 0.373333
2 7982_1 *7984:A 0
*END
*D_NET *7985 0.0003996
*CONN
*I *7986:Y O *D _2590
*I *7987:A I *L 0
*CAP
1 7985_1 0.0003996
*RES
1 *7986:Y 7985_1 4.9
2 7985_1 *7987:A 0
*END
*D_NET *7988 0.0001752
*CONN
*I *7989:Y O *D _2591
*I *7990:C I *L 0
*CAP
1 7988_1 0.0001752
*RES
1 *7989:Y 7988_1 4.2
2 7988_1 *7990:C 0
*END
*D_NET *7991 3.36e-05
*CONN
*I *7992:Y O *D _2593
*I *7993:B I *L 0
*CAP
1 7991_1 3.36e-05
*RES
1 *7992:Y 7991_1 0.933333
2 7991_1 *7993:B 0
*END
*D_NET *7994 0.00016248
*CONN
*I *7995:Y O *D _2594
*I *7996:A I *L 0
*CAP
1 7994_1 0.00016248
*RES
1 *7995:Y 7994_1 2.84667
2 7994_1 *7996:A 0
*END
*D_NET *7997 0.00048384
*CONN
*I *7998:Y O *D _2595
*I *7999:C I *L 0
*CAP
1 7997_1 0.00048384
*RES
1 *7998:Y 7997_1 8.21333
2 7997_1 *7999:C 0
*END
*D_NET *8000 0.00041208
*CONN
*I *8001:Y O *D _2596
*I *8002:D I *L 0
*CAP
1 8000_1 0.00041208
*RES
1 *8001:Y 8000_1 8.44667
2 8000_1 *8002:D 0
*END
*D_NET *8003 5.76e-05
*CONN
*I *8004:Y O *D _2597
*I *8005:A I *L 0
*CAP
1 8003_1 5.76e-05
*RES
1 *8004:Y 8003_1 0.373333
2 8003_1 *8005:A 0
*END
*D_NET *8006 3.36e-05
*CONN
*I *8007:Y O *D _2599
*I *8008:A I *L 0
*CAP
1 8006_1 3.36e-05
*RES
1 *8007:Y 8006_1 0.933333
2 8006_1 *8008:A 0
*END
*D_NET *8009 0.0014496
*CONN
*I *8010:Y O *D _2600
*I *8011:C I *L 0
*CAP
1 8009_1 0.0014496
*RES
1 *8010:Y 8009_1 33.6
2 8009_1 *8011:C 0
*END
*D_NET *8012 0.00019008
*CONN
*I *8013:Y O *D _2602
*I *8014:B I *L 0
*CAP
1 8012_1 0.00019008
*RES
1 *8013:Y 8012_1 2.61333
2 8012_1 *8014:B 0
*END
*D_NET *8015 0.00017616
*CONN
*I *8016:Y O *D _2603
*I *8017:A I *L 0
*CAP
1 8015_1 0.00017616
*RES
1 *8016:Y 8015_1 2.89333
2 8015_1 *8017:A 0
*END
*D_NET *8018 0.00018336
*CONN
*I *8019:Y O *D _2604
*I *8020:C I *L 0
*CAP
1 8018_1 0.00018336
*RES
1 *8019:Y 8018_1 2.42667
2 8018_1 *8020:C 0
*END
*D_NET *8021 0.000162
*CONN
*I *8022:Y O *D _2605
*I *8023:D I *L 0
*CAP
1 8021_1 0.000162
*RES
1 *8022:Y 8021_1 3.5
2 8021_1 *8023:D 0
*END
*D_NET *8024 9.48e-05
*CONN
*I *8025:Y O *D _2606
*I *8026:A I *L 0
*CAP
1 8024_1 9.48e-05
*RES
1 *8025:Y 8024_1 1.63333
2 8024_1 *8026:A 0
*END
*D_NET *8027 5.76e-05
*CONN
*I *8028:Y O *D _2608
*I *8029:A I *L 0
*CAP
1 8027_1 5.76e-05
*RES
1 *8028:Y 8027_1 0.373333
2 8027_1 *8029:A 0
*END
*D_NET *8030 0.0002688
*CONN
*I *8031:Y O *D _2609
*I *8032:C I *L 0
*CAP
1 8030_1 0.0002688
*RES
1 *8031:Y 8030_1 7.46667
2 8030_1 *8032:C 0
*END
*D_NET *8033 8.64e-05
*CONN
*I *8034:Y O *D _2611
*I *8035:B I *L 0
*CAP
1 8033_1 8.64e-05
*RES
1 *8034:Y 8033_1 0.56
2 8033_1 *8035:B 0
*END
*D_NET *8036 9.792e-05
*CONN
*I *8037:Y O *D _2612
*I *8038:A I *L 0
*CAP
1 8036_1 9.792e-05
*RES
1 *8037:Y 8036_1 1.49333
2 8036_1 *8038:A 0
*END
*D_NET *8039 0.00060648
*CONN
*I *8040:Y O *D _2613
*I *8041:C I *L 0
*CAP
1 8039_1 0.00060648
*RES
1 *8040:Y 8039_1 6.51333
2 8039_1 *8041:C 0
*END
*D_NET *8042 8.064e-05
*CONN
*I *8043:Y O *D _2614
*I *8044:D I *L 0
*CAP
1 8042_1 8.064e-05
*RES
1 *8043:Y 8042_1 2.24
2 8042_1 *8044:D 0
*END
*D_NET *8045 5.76e-05
*CONN
*I *8046:Y O *D _2615
*I *8047:A I *L 0
*CAP
1 8045_1 5.76e-05
*RES
1 *8046:Y 8045_1 0.373333
2 8045_1 *8047:A 0
*END
*D_NET *8048 0.00129552
*CONN
*I *8049:Y O *D _2617
*I *8050:A I *L 0
*CAP
1 8048_1 0.00129552
*RES
1 *8049:Y 8048_1 15.5867
2 8048_1 *8050:A 0
*END
*D_NET *8051 0.00073296
*CONN
*I *8052:Y O *D _2618
*I *8053:C I *L 0
*CAP
1 8051_1 0.00073296
*RES
1 *8052:Y 8051_1 14.6933
2 8051_1 *8053:C 0
*END
*D_NET *8054 8.64e-05
*CONN
*I *8055:Y O *D _2620
*I *8056:B I *L 0
*CAP
1 8054_1 8.64e-05
*RES
1 *8055:Y 8054_1 0.56
2 8054_1 *8056:B 0
*END
*D_NET *8057 0.00010824
*CONN
*I *8058:Y O *D _2621
*I *8059:A I *L 0
*CAP
1 8057_1 0.00010824
*RES
1 *8058:Y 8057_1 2.00667
2 8057_1 *8059:A 0
*END
*D_NET *8060 0.0001584
*CONN
*I *8061:Y O *D _2622
*I *8062:C I *L 0
*CAP
1 8060_1 0.0001584
*RES
1 *8061:Y 8060_1 1.02667
2 8060_1 *8062:C 0
*END
*D_NET *8063 0.00037992
*CONN
*I *8064:Y O *D _2623
*I *8065:D I *L 0
*CAP
1 8063_1 0.00037992
*RES
1 *8064:Y 8063_1 5.55333
2 8063_1 *8065:D 0
*END
*D_NET *8066 5.76e-05
*CONN
*I *8067:Y O *D _2624
*I *8068:A I *L 0
*CAP
1 8066_1 5.76e-05
*RES
1 *8067:Y 8066_1 0.373333
2 8066_1 *8068:A 0
*END
*D_NET *8069 0.00069984
*CONN
*I *8070:Y O *D _2626
*I *8071:A I *L 0
*CAP
1 8069_1 0.00069984
*RES
1 *8070:Y 8069_1 7.17333
2 8069_1 *8071:A 0
*END
*D_NET *8072 0.00026328
*CONN
*I *8073:Y O *D _2627
*I *8074:C I *L 0
*CAP
1 8072_1 0.00026328
*RES
1 *8073:Y 8072_1 5.64667
2 8072_1 *8074:C 0
*END
*D_NET *8075 7.44e-05
*CONN
*I *8076:Y O *D _2629
*I *8077:B I *L 0
*CAP
1 8075_1 7.44e-05
*RES
1 *8076:Y 8075_1 1.4
2 8075_1 *8077:B 0
*END
*D_NET *8078 0.00017928
*CONN
*I *8079:Y O *D _2630
*I *8080:A I *L 0
*CAP
1 8078_1 0.00017928
*RES
1 *8079:Y 8078_1 2.75333
2 8078_1 *8080:A 0
*END
*D_NET *8081 0.00058032
*CONN
*I *8082:Y O *D _2631
*I *8083:C I *L 0
*CAP
1 8081_1 0.00058032
*RES
1 *8082:Y 8081_1 12.2267
2 8081_1 *8083:C 0
*END
*D_NET *8084 0.00022272
*CONN
*I *8085:Y O *D _2632
*I *8086:D I *L 0
*CAP
1 8084_1 0.00022272
*RES
1 *8085:Y 8084_1 4.85333
2 8084_1 *8086:D 0
*END
*D_NET *8087 0.0018072
*CONN
*I *8088:Y O *D _2633
*I *8089:A I *L 0
*CAP
1 8087_1 0.0018072
*RES
1 *8088:Y 8087_1 19.4667
2 8087_1 *8089:A 0
*END
*D_NET *8090 0.0017784
*CONN
*I *8091:Y O *D _2635
*I *8092:A I *L 0
*CAP
1 8090_1 0.0017784
*RES
1 *8091:Y 8090_1 22.8
2 8090_1 *8092:A 0
*END
*D_NET *8093 0.00032376
*CONN
*I *8094:Y O *D _2636
*I *8095:C I *L 0
*CAP
1 8093_1 0.00032376
*RES
1 *8094:Y 8093_1 5.46
2 8093_1 *8095:C 0
*END
*D_NET *8096 0.00019296
*CONN
*I *8097:Y O *D _2638
*I *8098:B I *L 0
*CAP
1 8096_1 0.00019296
*RES
1 *8097:Y 8096_1 2.8
2 8096_1 *8098:B 0
*END
*D_NET *8099 8.64e-05
*CONN
*I *8100:Y O *D _2639
*I *8101:A I *L 0
*CAP
1 8099_1 8.64e-05
*RES
1 *8100:Y 8099_1 0.56
2 8099_1 *8101:A 0
*END
*D_NET *8102 0.0027384
*CONN
*I *8103:Y O *D _2640
*I *8104:C I *L 0
*CAP
1 8102_1 0.0027384
*RES
1 *8103:Y 8102_1 36.9333
2 8102_1 *8104:C 0
*END
*D_NET *8105 0.00199464
*CONN
*I *8106:Y O *D _2641
*I *8107:D I *L 0
*CAP
1 8105_1 0.00199464
*RES
1 *8106:Y 8105_1 21.2067
2 8105_1 *8107:D 0
*END
*D_NET *8108 5.76e-05
*CONN
*I *8109:Y O *D _2642
*I *8110:A I *L 0
*CAP
1 8108_1 5.76e-05
*RES
1 *8109:Y 8108_1 0.373333
2 8108_1 *8110:A 0
*END
*D_NET *8111 0.00023064
*CONN
*I *8112:Y O *D _2644
*I *8113:A I *L 0
*CAP
1 8111_1 0.00023064
*RES
1 *8112:Y 8111_1 3.40667
2 8111_1 *8113:A 0
*END
*D_NET *8114 0.0006588
*CONN
*I *8115:Y O *D _2645
*I *8116:C I *L 0
*CAP
1 8114_1 0.0006588
*RES
1 *8115:Y 8114_1 8.63333
2 8114_1 *8116:C 0
*END
*D_NET *8117 8.448e-05
*CONN
*I *8118:Y O *D _2647
*I *8119:B I *L 0
*CAP
1 8117_1 8.448e-05
*RES
1 *8118:Y 8117_1 1.12
2 8117_1 *8119:B 0
*END
*D_NET *8120 0.00015216
*CONN
*I *8121:Y O *D _2648
*I *8122:A I *L 0
*CAP
1 8120_1 0.00015216
*RES
1 *8121:Y 8120_1 2.33333
2 8120_1 *8122:A 0
*END
*D_NET *8123 0.0001584
*CONN
*I *8124:Y O *D _2649
*I *8125:C I *L 0
*CAP
1 8123_1 0.0001584
*RES
1 *8124:Y 8123_1 1.02667
2 8123_1 *8125:C 0
*END
*D_NET *8126 0.00018216
*CONN
*I *8127:Y O *D _2650
*I *8128:D I *L 0
*CAP
1 8126_1 0.00018216
*RES
1 *8127:Y 8126_1 4.06
2 8126_1 *8128:D 0
*END
*D_NET *8129 5.76e-05
*CONN
*I *8130:Y O *D _2651
*I *8131:A I *L 0
*CAP
1 8129_1 5.76e-05
*RES
1 *8130:Y 8129_1 0.373333
2 8129_1 *8131:A 0
*END
*D_NET *8132 0.000108
*CONN
*I *8133:Y O *D _2653
*I *8134:A I *L 0
*CAP
1 8132_1 0.000108
*RES
1 *8133:Y 8132_1 2.33333
2 8132_1 *8134:A 0
*END
*D_NET *8135 0.0002388
*CONN
*I *8136:Y O *D _2654
*I *8137:C I *L 0
*CAP
1 8135_1 0.0002388
*RES
1 *8136:Y 8135_1 2.56667
2 8135_1 *8137:C 0
*END
*D_NET *8138 8.64e-05
*CONN
*I *8139:Y O *D _2656
*I *8140:B I *L 0
*CAP
1 8138_1 8.64e-05
*RES
1 *8139:Y 8138_1 0.56
2 8138_1 *8140:B 0
*END
*D_NET *8141 8.784e-05
*CONN
*I *8142:Y O *D _2657
*I *8143:A I *L 0
*CAP
1 8141_1 8.784e-05
*RES
1 *8142:Y 8141_1 1.77333
2 8141_1 *8143:A 0
*END
*D_NET *8144 0.00084264
*CONN
*I *8145:Y O *D _2658
*I *8146:C I *L 0
*CAP
1 8144_1 0.00084264
*RES
1 *8145:Y 8144_1 10.4067
2 8144_1 *8146:C 0
*END
*D_NET *8147 0.0003324
*CONN
*I *8148:Y O *D _2659
*I *8149:D I *L 0
*CAP
1 8147_1 0.0003324
*RES
1 *8148:Y 8147_1 4.9
2 8147_1 *8149:D 0
*END
*D_NET *8150 5.76e-05
*CONN
*I *8151:Y O *D _2660
*I *8152:A I *L 0
*CAP
1 8150_1 5.76e-05
*RES
1 *8151:Y 8150_1 0.373333
2 8150_1 *8152:A 0
*END
*D_NET *8153 0.0003636
*CONN
*I *8154:Y O *D _2662
*I *8155:A I *L 0
*CAP
1 8153_1 0.0003636
*RES
1 *8154:Y 8153_1 3.16667
2 8153_1 *8155:A 0
*END
*D_NET *8156 0.00033672
*CONN
*I *8157:Y O *D _2663
*I *8158:C I *L 0
*CAP
1 8156_1 0.00033672
*RES
1 *8157:Y 8156_1 8.35333
2 8156_1 *8158:C 0
*END
*D_NET *8159 0.00019584
*CONN
*I *8160:Y O *D _2665
*I *8161:B I *L 0
*CAP
1 8159_1 0.00019584
*RES
1 *8160:Y 8159_1 2.24
2 8159_1 *8161:B 0
*END
*D_NET *8162 0.00016272
*CONN
*I *8163:Y O *D _2666
*I *8164:A I *L 0
*CAP
1 8162_1 0.00016272
*RES
1 *8163:Y 8162_1 2.52
2 8162_1 *8164:A 0
*END
*D_NET *8165 0.00016752
*CONN
*I *8166:Y O *D _2667
*I *8167:C I *L 0
*CAP
1 8165_1 0.00016752
*RES
1 *8166:Y 8165_1 2.14667
2 8165_1 *8167:C 0
*END
*D_NET *8168 0.00022128
*CONN
*I *8169:Y O *D _2668
*I *8170:D I *L 0
*CAP
1 8168_1 0.00022128
*RES
1 *8169:Y 8168_1 3.64
2 8168_1 *8170:D 0
*END
*D_NET *8171 5.76e-05
*CONN
*I *8172:Y O *D _2669
*I *8173:A I *L 0
*CAP
1 8171_1 5.76e-05
*RES
1 *8172:Y 8171_1 0.373333
2 8171_1 *8173:A 0
*END
*D_NET *8174 0.00041856
*CONN
*I *8175:Y O *D _2671
*I *8176:A I *L 0
*CAP
1 8174_1 0.00041856
*RES
1 *8175:Y 8174_1 8.96
2 8174_1 *8176:A 0
*END
*D_NET *8177 0.00088872
*CONN
*I *8178:Y O *D _2672
*I *8179:C I *L 0
*CAP
1 8177_1 0.00088872
*RES
1 *8178:Y 8177_1 11.1533
2 8177_1 *8179:C 0
*END
*D_NET *8180 8.64e-05
*CONN
*I *8181:Y O *D _2674
*I *8182:B I *L 0
*CAP
1 8180_1 8.64e-05
*RES
1 *8181:Y 8180_1 0.56
2 8180_1 *8182:B 0
*END
*D_NET *8183 0.00010824
*CONN
*I *8184:Y O *D _2675
*I *8185:A I *L 0
*CAP
1 8183_1 0.00010824
*RES
1 *8184:Y 8183_1 2.00667
2 8183_1 *8185:A 0
*END
*D_NET *8186 0.00017544
*CONN
*I *8187:Y O *D _2676
*I *8188:C I *L 0
*CAP
1 8186_1 0.00017544
*RES
1 *8187:Y 8186_1 2.00667
2 8186_1 *8188:C 0
*END
*D_NET *8189 0.00020256
*CONN
*I *8190:Y O *D _2677
*I *8191:D I *L 0
*CAP
1 8189_1 0.00020256
*RES
1 *8190:Y 8189_1 4.29333
2 8189_1 *8191:D 0
*END
*D_NET *8192 5.76e-05
*CONN
*I *8193:Y O *D _2678
*I *8194:A I *L 0
*CAP
1 8192_1 5.76e-05
*RES
1 *8193:Y 8192_1 0.373333
2 8192_1 *8194:A 0
*END
*D_NET *8195 0.00021672
*CONN
*I *8196:Y O *D _2680
*I *8197:A I *L 0
*CAP
1 8195_1 0.00021672
*RES
1 *8196:Y 8195_1 3.68667
2 8195_1 *8197:A 0
*END
*D_NET *8198 0.00038352
*CONN
*I *8199:Y O *D _2681
*I *8200:C I *L 0
*CAP
1 8198_1 0.00038352
*RES
1 *8199:Y 8198_1 4.05333
2 8198_1 *8200:C 0
*END
*D_NET *8201 0.00016896
*CONN
*I *8202:Y O *D _2683
*I *8203:B I *L 0
*CAP
1 8201_1 0.00016896
*RES
1 *8202:Y 8201_1 3.36
2 8201_1 *8203:B 0
*END
*D_NET *8204 0.0002016
*CONN
*I *8205:Y O *D _2684
*I *8206:A I *L 0
*CAP
1 8204_1 0.0002016
*RES
1 *8205:Y 8204_1 1.30667
2 8204_1 *8206:A 0
*END
*D_NET *8207 0.0002724
*CONN
*I *8208:Y O *D _2685
*I *8209:C I *L 0
*CAP
1 8207_1 0.0002724
*RES
1 *8208:Y 8207_1 3.56667
2 8207_1 *8209:C 0
*END
*D_NET *8210 0.000156
*CONN
*I *8211:Y O *D _2686
*I *8212:D I *L 0
*CAP
1 8210_1 0.000156
*RES
1 *8211:Y 8210_1 2.33333
2 8210_1 *8212:D 0
*END
*D_NET *8213 5.76e-05
*CONN
*I *8214:Y O *D _2687
*I *8215:A I *L 0
*CAP
1 8213_1 5.76e-05
*RES
1 *8214:Y 8213_1 0.373333
2 8213_1 *8215:A 0
*END
*D_NET *8216 4.032e-05
*CONN
*I *8217:Y O *D _2689
*I *8218:A I *L 0
*CAP
1 8216_1 4.032e-05
*RES
1 *8217:Y 8216_1 1.12
2 8216_1 *8218:A 0
*END
*D_NET *8219 0.00107976
*CONN
*I *8220:Y O *D _2690
*I *8221:C I *L 0
*CAP
1 8219_1 0.00107976
*RES
1 *8220:Y 8219_1 23.66
2 8219_1 *8221:C 0
*END
*D_NET *8222 0.00023184
*CONN
*I *8223:Y O *D _2692
*I *8224:B I *L 0
*CAP
1 8222_1 0.00023184
*RES
1 *8223:Y 8222_1 2.70667
2 8222_1 *8224:B 0
*END
*D_NET *8225 0.00024696
*CONN
*I *8226:Y O *D _2693
*I *8227:A I *L 0
*CAP
1 8225_1 0.00024696
*RES
1 *8226:Y 8225_1 3.96667
2 8225_1 *8227:A 0
*END
*D_NET *8228 0.0001584
*CONN
*I *8229:Y O *D _2694
*I *8230:C I *L 0
*CAP
1 8228_1 0.0001584
*RES
1 *8229:Y 8228_1 1.02667
2 8228_1 *8230:C 0
*END
*D_NET *8231 0.00038304
*CONN
*I *8232:Y O *D _2695
*I *8233:D I *L 0
*CAP
1 8231_1 0.00038304
*RES
1 *8232:Y 8231_1 5.97333
2 8231_1 *8233:D 0
*END
*D_NET *8234 5.76e-05
*CONN
*I *8235:Y O *D _2696
*I *8236:A I *L 0
*CAP
1 8234_1 5.76e-05
*RES
1 *8235:Y 8234_1 0.373333
2 8234_1 *8236:A 0
*END
*D_NET *8237 5.76e-05
*CONN
*I *8238:Y O *D _2698
*I *8239:A I *L 0
*CAP
1 8237_1 5.76e-05
*RES
1 *8238:Y 8237_1 0.373333
2 8237_1 *8239:A 0
*END
*D_NET *8240 2.016e-05
*CONN
*I *8241:Y O *D _2699
*I *8242:C I *L 0
*CAP
1 8240_1 2.016e-05
*RES
1 *8241:Y 8240_1 0.56
2 8240_1 *8242:C 0
*END
*D_NET *8243 8.64e-05
*CONN
*I *8244:Y O *D _2701
*I *8245:B I *L 0
*CAP
1 8243_1 8.64e-05
*RES
1 *8244:Y 8243_1 0.56
2 8243_1 *8245:B 0
*END
*D_NET *8246 0.00022584
*CONN
*I *8247:Y O *D _2702
*I *8248:A I *L 0
*CAP
1 8246_1 0.00022584
*RES
1 *8247:Y 8246_1 2.84667
2 8246_1 *8248:A 0
*END
*D_NET *8249 0.00015912
*CONN
*I *8250:Y O *D _2703
*I *8251:C I *L 0
*CAP
1 8249_1 0.00015912
*RES
1 *8250:Y 8249_1 1.82
2 8249_1 *8251:C 0
*END
*D_NET *8252 0.00020256
*CONN
*I *8253:Y O *D _2704
*I *8254:D I *L 0
*CAP
1 8252_1 0.00020256
*RES
1 *8253:Y 8252_1 4.29333
2 8252_1 *8254:D 0
*END
*D_NET *8255 0.00211056
*CONN
*I *8256:Y O *D _2705
*I *8257:A I *L 0
*CAP
1 8255_1 0.00211056
*RES
1 *8256:Y 8255_1 20.96
2 8255_1 *8257:A 0
*END
*D_NET *8258 0.00138672
*CONN
*I *8259:Y O *D _2707
*I *8260:A I *L 0
*CAP
1 8258_1 0.00138672
*RES
1 *8259:Y 8258_1 22.0267
2 8258_1 *8260:A 0
*END
*D_NET *8261 0.0001584
*CONN
*I *8262:Y O *D _2708
*I *8263:C I *L 0
*CAP
1 8261_1 0.0001584
*RES
1 *8262:Y 8261_1 1.02667
2 8261_1 *8263:C 0
*END
*D_NET *8264 6.048e-05
*CONN
*I *8265:Y O *D _2710
*I *8266:B I *L 0
*CAP
1 8264_1 6.048e-05
*RES
1 *8265:Y 8264_1 1.68
2 8264_1 *8266:B 0
*END
*D_NET *8267 8.64e-05
*CONN
*I *8268:Y O *D _2711
*I *8269:A I *L 0
*CAP
1 8267_1 8.64e-05
*RES
1 *8268:Y 8267_1 0.56
2 8267_1 *8269:A 0
*END
*D_NET *8270 0.00016296
*CONN
*I *8271:Y O *D _2712
*I *8272:C I *L 0
*CAP
1 8270_1 0.00016296
*RES
1 *8271:Y 8270_1 2.19333
2 8270_1 *8272:C 0
*END
*D_NET *8273 0.00019584
*CONN
*I *8274:Y O *D _2713
*I *8275:D I *L 0
*CAP
1 8273_1 0.00019584
*RES
1 *8274:Y 8273_1 4.10667
2 8273_1 *8275:D 0
*END
*D_NET *8276 5.76e-05
*CONN
*I *8277:Y O *D _2714
*I *8278:A I *L 0
*CAP
1 8276_1 5.76e-05
*RES
1 *8277:Y 8276_1 0.373333
2 8276_1 *8278:A 0
*END
*D_NET *8279 0.00021048
*CONN
*I *8280:Y O *D _2716
*I *8281:A I *L 0
*CAP
1 8279_1 0.00021048
*RES
1 *8280:Y 8279_1 2.84667
2 8279_1 *8281:A 0
*END
*D_NET *8282 0.0002004
*CONN
*I *8283:Y O *D _2717
*I *8284:C I *L 0
*CAP
1 8282_1 0.0002004
*RES
1 *8283:Y 8282_1 2.00667
2 8282_1 *8284:C 0
*END
*D_NET *8285 8.64e-05
*CONN
*I *8286:Y O *D _2719
*I *8287:B I *L 0
*CAP
1 8285_1 8.64e-05
*RES
1 *8286:Y 8285_1 0.56
2 8285_1 *8287:B 0
*END
*D_NET *8288 9.792e-05
*CONN
*I *8289:Y O *D _2720
*I *8290:A I *L 0
*CAP
1 8288_1 9.792e-05
*RES
1 *8289:Y 8288_1 1.49333
2 8288_1 *8290:A 0
*END
*D_NET *8291 0.0001584
*CONN
*I *8292:Y O *D _2721
*I *8293:C I *L 0
*CAP
1 8291_1 0.0001584
*RES
1 *8292:Y 8291_1 1.02667
2 8291_1 *8293:C 0
*END
*D_NET *8294 0.00012768
*CONN
*I *8295:Y O *D _2722
*I *8296:D I *L 0
*CAP
1 8294_1 0.00012768
*RES
1 *8295:Y 8294_1 3.54667
2 8294_1 *8296:D 0
*END
*D_NET *8297 5.76e-05
*CONN
*I *8298:Y O *D _2723
*I *8299:A I *L 0
*CAP
1 8297_1 5.76e-05
*RES
1 *8298:Y 8297_1 0.373333
2 8297_1 *8299:A 0
*END
*D_NET *8300 5.76e-05
*CONN
*I *8301:Y O *D _2725
*I *8302:A I *L 0
*CAP
1 8300_1 5.76e-05
*RES
1 *8301:Y 8300_1 0.373333
2 8300_1 *8302:A 0
*END
*D_NET *8303 0.00022896
*CONN
*I *8304:Y O *D _2726
*I *8305:C I *L 0
*CAP
1 8303_1 0.00022896
*RES
1 *8304:Y 8303_1 5.69333
2 8303_1 *8305:C 0
*END
*D_NET *8306 8.64e-05
*CONN
*I *8307:Y O *D _2728
*I *8308:B I *L 0
*CAP
1 8306_1 8.64e-05
*RES
1 *8307:Y 8306_1 0.56
2 8306_1 *8308:B 0
*END
*D_NET *8309 0.00010824
*CONN
*I *8310:Y O *D _2729
*I *8311:A I *L 0
*CAP
1 8309_1 0.00010824
*RES
1 *8310:Y 8309_1 2.00667
2 8309_1 *8311:A 0
*END
*D_NET *8312 0.00028392
*CONN
*I *8313:Y O *D _2730
*I *8314:C I *L 0
*CAP
1 8312_1 0.00028392
*RES
1 *8313:Y 8312_1 5.55333
2 8312_1 *8314:C 0
*END
*D_NET *8315 0.00018216
*CONN
*I *8316:Y O *D _2731
*I *8317:D I *L 0
*CAP
1 8315_1 0.00018216
*RES
1 *8316:Y 8315_1 4.06
2 8315_1 *8317:D 0
*END
*D_NET *8318 5.76e-05
*CONN
*I *8319:Y O *D _2732
*I *8320:A I *L 0
*CAP
1 8318_1 5.76e-05
*RES
1 *8319:Y 8318_1 0.373333
2 8318_1 *8320:A 0
*END
*D_NET *8321 0.00093888
*CONN
*I *8322:Y O *D _2734
*I *8323:A I *L 0
*CAP
1 8321_1 0.00093888
*RES
1 *8322:Y 8321_1 16.92
2 8321_1 *8323:A 0
*END
*D_NET *8324 8.808e-05
*CONN
*I *8325:Y O *D _2735
*I *8326:C I *L 0
*CAP
1 8324_1 8.808e-05
*RES
1 *8325:Y 8324_1 1.44667
2 8324_1 *8326:C 0
*END
*D_NET *8327 0.0002292
*CONN
*I *8328:Y O *D _2737
*I *8329:B I *L 0
*CAP
1 8327_1 0.0002292
*RES
1 *8328:Y 8327_1 2.19333
2 8327_1 *8329:B 0
*END
*D_NET *8330 0.00016944
*CONN
*I *8331:Y O *D _2738
*I *8332:A I *L 0
*CAP
1 8330_1 0.00016944
*RES
1 *8331:Y 8330_1 2.70667
2 8330_1 *8332:A 0
*END
*D_NET *8333 0.00105456
*CONN
*I *8334:Y O *D _2739
*I *8335:C I *L 0
*CAP
1 8333_1 0.00105456
*RES
1 *8334:Y 8333_1 18.2933
2 8333_1 *8335:C 0
*END
*D_NET *8336 0.0002976
*CONN
*I *8337:Y O *D _2740
*I *8338:D I *L 0
*CAP
1 8336_1 0.0002976
*RES
1 *8337:Y 8336_1 3.73333
2 8336_1 *8338:D 0
*END
*D_NET *8339 0.00014856
*CONN
*I *8340:Y O *D _2741
*I *8341:A I *L 0
*CAP
1 8339_1 0.00014856
*RES
1 *8340:Y 8339_1 3.12667
2 8339_1 *8341:A 0
*END
*D_NET *8342 0.000468
*CONN
*I *8343:Y O *D _2743
*I *8344:A I *L 0
*CAP
1 8342_1 0.000468
*RES
1 *8343:Y 8342_1 7
2 8342_1 *8344:A 0
*END
*D_NET *8345 0.00037944
*CONN
*I *8346:Y O *D _2744
*I *8347:C I *L 0
*CAP
1 8345_1 0.00037944
*RES
1 *8346:Y 8345_1 4.34
2 8345_1 *8347:C 0
*END
*D_NET *8348 8.64e-05
*CONN
*I *8349:Y O *D _2746
*I *8350:B I *L 0
*CAP
1 8348_1 8.64e-05
*RES
1 *8349:Y 8348_1 0.56
2 8348_1 *8350:B 0
*END
*D_NET *8351 0.00025392
*CONN
*I *8352:Y O *D _2747
*I *8353:A I *L 0
*CAP
1 8351_1 0.00025392
*RES
1 *8352:Y 8351_1 2.70667
2 8351_1 *8353:A 0
*END
*D_NET *8354 0.00049848
*CONN
*I *8355:Y O *D _2748
*I *8356:C I *L 0
*CAP
1 8354_1 0.00049848
*RES
1 *8355:Y 8354_1 7.14
2 8354_1 *8356:C 0
*END
*D_NET *8357 0.000156
*CONN
*I *8358:Y O *D _2749
*I *8359:D I *L 0
*CAP
1 8357_1 0.000156
*RES
1 *8358:Y 8357_1 2.33333
2 8357_1 *8359:D 0
*END
*D_NET *8360 0.00038232
*CONN
*I *8361:Y O *D _2750
*I *8362:A I *L 0
*CAP
1 8360_1 0.00038232
*RES
1 *8361:Y 8360_1 6.39333
2 8360_1 *8362:A 0
*END
*D_NET *8363 0.0013164
*CONN
*I *8364:Y O *D _2752
*I *8365:A I *L 0
*CAP
1 8363_1 0.0013164
*RES
1 *8364:Y 8363_1 17.0333
2 8363_1 *8365:A 0
*END
*D_NET *8366 0.0001584
*CONN
*I *8367:Y O *D _2753
*I *8368:C I *L 0
*CAP
1 8366_1 0.0001584
*RES
1 *8367:Y 8366_1 1.02667
2 8366_1 *8368:C 0
*END
*D_NET *8369 0.00019584
*CONN
*I *8370:Y O *D _2755
*I *8371:B I *L 0
*CAP
1 8369_1 0.00019584
*RES
1 *8370:Y 8369_1 2.24
2 8369_1 *8371:B 0
*END
*D_NET *8372 0.00016272
*CONN
*I *8373:Y O *D _2756
*I *8374:A I *L 0
*CAP
1 8372_1 0.00016272
*RES
1 *8373:Y 8372_1 2.52
2 8372_1 *8374:A 0
*END
*D_NET *8375 0.0004104
*CONN
*I *8376:Y O *D _2757
*I *8377:C I *L 0
*CAP
1 8375_1 0.0004104
*RES
1 *8376:Y 8375_1 10.7333
2 8375_1 *8377:C 0
*END
*D_NET *8378 0.00026448
*CONN
*I *8379:Y O *D _2758
*I *8380:D I *L 0
*CAP
1 8378_1 0.00026448
*RES
1 *8379:Y 8378_1 4.01333
2 8378_1 *8380:D 0
*END
*D_NET *8381 5.76e-05
*CONN
*I *8382:Y O *D _2759
*I *8383:A I *L 0
*CAP
1 8381_1 5.76e-05
*RES
1 *8382:Y 8381_1 0.373333
2 8381_1 *8383:A 0
*END
*D_NET *8384 0.0006456
*CONN
*I *8385:Y O *D _2761
*I *8386:A I *L 0
*CAP
1 8384_1 0.0006456
*RES
1 *8385:Y 8384_1 7.93333
2 8384_1 *8386:A 0
*END
*D_NET *8387 0.0001584
*CONN
*I *8388:Y O *D _2762
*I *8389:C I *L 0
*CAP
1 8387_1 0.0001584
*RES
1 *8388:Y 8387_1 1.02667
2 8387_1 *8389:C 0
*END
*D_NET *8390 8.64e-05
*CONN
*I *8391:Y O *D _2764
*I *8392:B I *L 0
*CAP
1 8390_1 8.64e-05
*RES
1 *8391:Y 8390_1 0.56
2 8390_1 *8392:B 0
*END
*D_NET *8393 0.00010824
*CONN
*I *8394:Y O *D _2765
*I *8395:A I *L 0
*CAP
1 8393_1 0.00010824
*RES
1 *8394:Y 8393_1 2.00667
2 8393_1 *8395:A 0
*END
*D_NET *8396 0.0001584
*CONN
*I *8397:Y O *D _2766
*I *8398:C I *L 0
*CAP
1 8396_1 0.0001584
*RES
1 *8397:Y 8396_1 1.02667
2 8396_1 *8398:C 0
*END
*D_NET *8399 0.00033288
*CONN
*I *8400:Y O *D _2767
*I *8401:D I *L 0
*CAP
1 8399_1 0.00033288
*RES
1 *8400:Y 8399_1 4.24667
2 8399_1 *8401:D 0
*END
*D_NET *8402 5.76e-05
*CONN
*I *8403:Y O *D _2768
*I *8404:A I *L 0
*CAP
1 8402_1 5.76e-05
*RES
1 *8403:Y 8402_1 0.373333
2 8402_1 *8404:A 0
*END
*D_NET *8405 5.76e-05
*CONN
*I *8406:Y O *D _2770
*I *8407:A I *L 0
*CAP
1 8405_1 5.76e-05
*RES
1 *8406:Y 8405_1 0.373333
2 8405_1 *8407:A 0
*END
*D_NET *8408 0.0001584
*CONN
*I *8409:Y O *D _2771
*I *8410:C I *L 0
*CAP
1 8408_1 0.0001584
*RES
1 *8409:Y 8408_1 1.02667
2 8408_1 *8410:C 0
*END
*D_NET *8411 8.64e-05
*CONN
*I *8412:Y O *D _2773
*I *8413:B I *L 0
*CAP
1 8411_1 8.64e-05
*RES
1 *8412:Y 8411_1 0.56
2 8411_1 *8413:B 0
*END
*D_NET *8414 8.784e-05
*CONN
*I *8415:Y O *D _2774
*I *8416:A I *L 0
*CAP
1 8414_1 8.784e-05
*RES
1 *8415:Y 8414_1 1.77333
2 8414_1 *8416:A 0
*END
*D_NET *8417 0.0004644
*CONN
*I *8418:Y O *D _2775
*I *8419:C I *L 0
*CAP
1 8417_1 0.0004644
*RES
1 *8418:Y 8417_1 7.31333
2 8417_1 *8419:C 0
*END
*D_NET *8420 0.00030456
*CONN
*I *8421:Y O *D _2776
*I *8422:D I *L 0
*CAP
1 8420_1 0.00030456
*RES
1 *8421:Y 8420_1 5.46
2 8420_1 *8422:D 0
*END
*D_NET *8423 5.76e-05
*CONN
*I *8424:Y O *D _2777
*I *8425:A I *L 0
*CAP
1 8423_1 5.76e-05
*RES
1 *8424:Y 8423_1 0.373333
2 8423_1 *8425:A 0
*END
*D_NET *8426 0.0003372
*CONN
*I *8427:Y O *D _2779
*I *8428:A I *L 0
*CAP
1 8426_1 0.0003372
*RES
1 *8427:Y 8426_1 4.56667
2 8426_1 *8428:A 0
*END
*D_NET *8429 6.096e-05
*CONN
*I *8430:Y O *D _2780
*I *8431:C I *L 0
*CAP
1 8429_1 6.096e-05
*RES
1 *8430:Y 8429_1 1.02667
2 8429_1 *8431:C 0
*END
*D_NET *8432 8.64e-05
*CONN
*I *8433:Y O *D _2782
*I *8434:B I *L 0
*CAP
1 8432_1 8.64e-05
*RES
1 *8433:Y 8432_1 0.56
2 8432_1 *8434:B 0
*END
*D_NET *8435 6.048e-05
*CONN
*I *8436:Y O *D _2783
*I *8437:A I *L 0
*CAP
1 8435_1 6.048e-05
*RES
1 *8436:Y 8435_1 1.68
2 8435_1 *8437:A 0
*END
*D_NET *8438 0.00067296
*CONN
*I *8439:Y O *D _2784
*I *8440:C I *L 0
*CAP
1 8438_1 0.00067296
*RES
1 *8439:Y 8438_1 8.02667
2 8438_1 *8440:C 0
*END
*D_NET *8441 0.00038064
*CONN
*I *8442:Y O *D _2785
*I *8443:D I *L 0
*CAP
1 8441_1 0.00038064
*RES
1 *8442:Y 8441_1 5.50667
2 8441_1 *8443:D 0
*END
*D_NET *8444 5.76e-05
*CONN
*I *8445:Y O *D _2786
*I *8446:A I *L 0
*CAP
1 8444_1 5.76e-05
*RES
1 *8445:Y 8444_1 0.373333
2 8444_1 *8446:A 0
*END
*D_NET *8447 0.0001224
*CONN
*I *8448:Y O *D _2788
*I *8449:A I *L 0
*CAP
1 8447_1 0.0001224
*RES
1 *8448:Y 8447_1 1.4
2 8447_1 *8449:A 0
*END
*D_NET *8450 4.032e-05
*CONN
*I *8451:Y O *D _2789
*I *8452:C I *L 0
*CAP
1 8450_1 4.032e-05
*RES
1 *8451:Y 8450_1 1.12
2 8450_1 *8452:C 0
*END
*D_NET *8453 8.64e-05
*CONN
*I *8454:Y O *D _2791
*I *8455:B I *L 0
*CAP
1 8453_1 8.64e-05
*RES
1 *8454:Y 8453_1 0.56
2 8453_1 *8455:B 0
*END
*D_NET *8456 0.00010824
*CONN
*I *8457:Y O *D _2792
*I *8458:A I *L 0
*CAP
1 8456_1 0.00010824
*RES
1 *8457:Y 8456_1 2.00667
2 8456_1 *8458:A 0
*END
*D_NET *8459 0.0001584
*CONN
*I *8460:Y O *D _2793
*I *8461:C I *L 0
*CAP
1 8459_1 0.0001584
*RES
1 *8460:Y 8459_1 1.02667
2 8459_1 *8461:C 0
*END
*D_NET *8462 0.00012768
*CONN
*I *8463:Y O *D _2794
*I *8464:D I *L 0
*CAP
1 8462_1 0.00012768
*RES
1 *8463:Y 8462_1 3.54667
2 8462_1 *8464:D 0
*END
*D_NET *8465 3.36e-05
*CONN
*I *8466:Y O *D _2795
*I *8467:A I *L 0
*CAP
1 8465_1 3.36e-05
*RES
1 *8466:Y 8465_1 0.933333
2 8465_1 *8467:A 0
*END
*D_NET *8468 0.00107064
*CONN
*I *8469:Y O *D _2797
*I *8470:A I *L 0
*CAP
1 8468_1 0.00107064
*RES
1 *8469:Y 8468_1 17.4067
2 8468_1 *8470:A 0
*END
*D_NET *8471 0.00076944
*CONN
*I *8472:Y O *D _2798
*I *8473:C I *L 0
*CAP
1 8471_1 0.00076944
*RES
1 *8472:Y 8471_1 10.1067
2 8471_1 *8473:C 0
*END
*D_NET *8474 0.00034224
*CONN
*I *8475:Y O *D _2800
*I *8476:B I *L 0
*CAP
1 8474_1 0.00034224
*RES
1 *8475:Y 8474_1 4.94667
2 8474_1 *8476:B 0
*END
*D_NET *8477 0.00013872
*CONN
*I *8478:Y O *D _2801
*I *8479:A I *L 0
*CAP
1 8477_1 0.00013872
*RES
1 *8478:Y 8477_1 1.96
2 8477_1 *8479:A 0
*END
*D_NET *8480 0.00022368
*CONN
*I *8481:Y O *D _2802
*I *8482:C I *L 0
*CAP
1 8480_1 0.00022368
*RES
1 *8481:Y 8480_1 3.54667
2 8480_1 *8482:C 0
*END
*D_NET *8483 0.00016872
*CONN
*I *8484:Y O *D _2803
*I *8485:D I *L 0
*CAP
1 8483_1 0.00016872
*RES
1 *8484:Y 8483_1 3.68667
2 8483_1 *8485:D 0
*END
*D_NET *8486 3.36e-05
*CONN
*I *8487:Y O *D _2804
*I *8488:A I *L 0
*CAP
1 8486_1 3.36e-05
*RES
1 *8487:Y 8486_1 0.933333
2 8486_1 *8488:A 0
*END
*D_NET *8489 0.00037344
*CONN
*I *8490:Y O *D _2806
*I *8491:A I *L 0
*CAP
1 8489_1 0.00037344
*RES
1 *8490:Y 8489_1 5.04
2 8489_1 *8491:A 0
*END
*D_NET *8492 0.000282
*CONN
*I *8493:Y O *D _2807
*I *8494:C I *L 0
*CAP
1 8492_1 0.000282
*RES
1 *8493:Y 8492_1 2.94
2 8492_1 *8494:C 0
*END
*D_NET *8495 8.64e-05
*CONN
*I *8496:Y O *D _2809
*I *8497:B I *L 0
*CAP
1 8495_1 8.64e-05
*RES
1 *8496:Y 8495_1 0.56
2 8495_1 *8497:B 0
*END
*D_NET *8498 0.00013344
*CONN
*I *8499:Y O *D _2810
*I *8500:A I *L 0
*CAP
1 8498_1 0.00013344
*RES
1 *8499:Y 8498_1 1.86667
2 8498_1 *8500:A 0
*END
*D_NET *8501 0.0001428
*CONN
*I *8502:Y O *D _2811
*I *8503:C I *L 0
*CAP
1 8501_1 0.0001428
*RES
1 *8502:Y 8501_1 1.63333
2 8501_1 *8503:C 0
*END
*D_NET *8504 0.0003744
*CONN
*I *8505:Y O *D _2812
*I *8506:D I *L 0
*CAP
1 8504_1 0.0003744
*RES
1 *8505:Y 8504_1 8.4
2 8504_1 *8506:D 0
*END
*D_NET *8507 5.76e-05
*CONN
*I *8508:Y O *D _2813
*I *8509:A I *L 0
*CAP
1 8507_1 5.76e-05
*RES
1 *8508:Y 8507_1 0.373333
2 8507_1 *8509:A 0
*END
*D_NET *8510 0.00020208
*CONN
*I *8511:Y O *D _2815
*I *8512:A I *L 0
*CAP
1 8510_1 0.00020208
*RES
1 *8511:Y 8510_1 4.94667
2 8510_1 *8512:A 0
*END
*D_NET *8513 0.00098424
*CONN
*I *8514:Y O *D _2816
*I *8515:C I *L 0
*CAP
1 8513_1 0.00098424
*RES
1 *8514:Y 8513_1 23.0067
2 8513_1 *8515:C 0
*END
*D_NET *8516 0.00014208
*CONN
*I *8517:Y O *D _2818
*I *8518:B I *L 0
*CAP
1 8516_1 0.00014208
*RES
1 *8517:Y 8516_1 2.61333
2 8516_1 *8518:B 0
*END
*D_NET *8519 8.64e-05
*CONN
*I *8520:Y O *D _2819
*I *8521:A I *L 0
*CAP
1 8519_1 8.64e-05
*RES
1 *8520:Y 8519_1 0.56
2 8519_1 *8521:A 0
*END
*D_NET *8522 0.0001584
*CONN
*I *8523:Y O *D _2820
*I *8524:C I *L 0
*CAP
1 8522_1 0.0001584
*RES
1 *8523:Y 8522_1 1.02667
2 8522_1 *8524:C 0
*END
*D_NET *8525 0.0003048
*CONN
*I *8526:Y O *D _2821
*I *8527:D I *L 0
*CAP
1 8525_1 0.0003048
*RES
1 *8526:Y 8525_1 5.13333
2 8525_1 *8527:D 0
*END
*D_NET *8528 5.76e-05
*CONN
*I *8529:Y O *D _2822
*I *8530:A I *L 0
*CAP
1 8528_1 5.76e-05
*RES
1 *8529:Y 8528_1 0.373333
2 8528_1 *8530:A 0
*END
*D_NET *8531 0.0008076
*CONN
*I *8532:Y O *D _2824
*I *8533:A I *L 0
*CAP
1 8531_1 0.0008076
*RES
1 *8532:Y 8531_1 7.47333
2 8531_1 *8533:A 0
*END
*D_NET *8534 0.00063864
*CONN
*I *8535:Y O *D _2825
*I *8536:C I *L 0
*CAP
1 8534_1 0.00063864
*RES
1 *8535:Y 8534_1 8.07333
2 8534_1 *8536:C 0
*END
*D_NET *8537 8.64e-05
*CONN
*I *8538:Y O *D _2827
*I *8539:B I *L 0
*CAP
1 8537_1 8.64e-05
*RES
1 *8538:Y 8537_1 0.56
2 8537_1 *8539:B 0
*END
*D_NET *8540 9.792e-05
*CONN
*I *8541:Y O *D _2828
*I *8542:A I *L 0
*CAP
1 8540_1 9.792e-05
*RES
1 *8541:Y 8540_1 1.49333
2 8540_1 *8542:A 0
*END
*D_NET *8543 0.00024408
*CONN
*I *8544:Y O *D _2829
*I *8545:C I *L 0
*CAP
1 8543_1 0.00024408
*RES
1 *8544:Y 8543_1 3.78
2 8543_1 *8545:C 0
*END
*D_NET *8546 0.00032592
*CONN
*I *8547:Y O *D _2830
*I *8548:D I *L 0
*CAP
1 8546_1 0.00032592
*RES
1 *8547:Y 8546_1 4.38667
2 8546_1 *8548:D 0
*END
*D_NET *8549 5.76e-05
*CONN
*I *8550:Y O *D _2831
*I *8551:A I *L 0
*CAP
1 8549_1 5.76e-05
*RES
1 *8550:Y 8549_1 0.373333
2 8549_1 *8551:A 0
*END
*D_NET *8552 0.00067248
*CONN
*I *8553:Y O *D _2833
*I *8554:A I *L 0
*CAP
1 8552_1 0.00067248
*RES
1 *8553:Y 8552_1 7.74667
2 8552_1 *8554:A 0
*END
*D_NET *8555 4.896e-05
*CONN
*I *8556:Y O *D _2834
*I *8557:C I *L 0
*CAP
1 8555_1 4.896e-05
*RES
1 *8556:Y 8555_1 0.56
2 8555_1 *8557:C 0
*END
*D_NET *8558 8.64e-05
*CONN
*I *8559:Y O *D _2836
*I *8560:B I *L 0
*CAP
1 8558_1 8.64e-05
*RES
1 *8559:Y 8558_1 0.56
2 8558_1 *8560:B 0
*END
*D_NET *8561 8.784e-05
*CONN
*I *8562:Y O *D _2837
*I *8563:A I *L 0
*CAP
1 8561_1 8.784e-05
*RES
1 *8562:Y 8561_1 1.77333
2 8561_1 *8563:A 0
*END
*D_NET *8564 0.00018336
*CONN
*I *8565:Y O *D _2838
*I *8566:C I *L 0
*CAP
1 8564_1 0.00018336
*RES
1 *8565:Y 8564_1 2.42667
2 8564_1 *8566:C 0
*END
*D_NET *8567 0.00012768
*CONN
*I *8568:Y O *D _2839
*I *8569:D I *L 0
*CAP
1 8567_1 0.00012768
*RES
1 *8568:Y 8567_1 3.54667
2 8567_1 *8569:D 0
*END
*D_NET *8570 5.76e-05
*CONN
*I *8571:Y O *D _2840
*I *8572:A I *L 0
*CAP
1 8570_1 5.76e-05
*RES
1 *8571:Y 8570_1 0.373333
2 8570_1 *8572:A 0
*END
*D_NET *8573 0.00012168
*CONN
*I *8574:Y O *D _2842
*I *8575:A I *L 0
*CAP
1 8573_1 0.00012168
*RES
1 *8574:Y 8573_1 2.38
2 8573_1 *8575:A 0
*END
*D_NET *8576 0.00024408
*CONN
*I *8577:Y O *D _2843
*I *8578:C I *L 0
*CAP
1 8576_1 0.00024408
*RES
1 *8577:Y 8576_1 3.78
2 8576_1 *8578:C 0
*END
*D_NET *8579 0.00017544
*CONN
*I *8580:Y O *D _2845
*I *8581:B I *L 0
*CAP
1 8579_1 0.00017544
*RES
1 *8580:Y 8579_1 2.00667
2 8579_1 *8581:B 0
*END
*D_NET *8582 0.00019656
*CONN
*I *8583:Y O *D _2846
*I *8584:A I *L 0
*CAP
1 8582_1 0.00019656
*RES
1 *8583:Y 8582_1 3.12667
2 8582_1 *8584:A 0
*END
*D_NET *8585 9.456e-05
*CONN
*I *8586:Y O *D _2847
*I *8587:C I *L 0
*CAP
1 8585_1 9.456e-05
*RES
1 *8586:Y 8585_1 1.96
2 8585_1 *8587:C 0
*END
*D_NET *8588 0.00034608
*CONN
*I *8589:Y O *D _2848
*I *8590:D I *L 0
*CAP
1 8588_1 0.00034608
*RES
1 *8589:Y 8588_1 4.94667
2 8588_1 *8590:D 0
*END
*D_NET *8591 8.64e-05
*CONN
*I *8592:Y O *D _2849
*I *8593:A I *L 0
*CAP
1 8591_1 8.64e-05
*RES
1 *8592:Y 8591_1 0.56
2 8591_1 *8593:A 0
*END
*D_NET *8594 5.76e-05
*CONN
*I *8595:Y O *D _2851
*I *8596:A I *L 0
*CAP
1 8594_1 5.76e-05
*RES
1 *8595:Y 8594_1 0.373333
2 8594_1 *8596:A 0
*END
*D_NET *8597 0.0001584
*CONN
*I *8598:Y O *D _2852
*I *8599:C I *L 0
*CAP
1 8597_1 0.0001584
*RES
1 *8598:Y 8597_1 1.02667
2 8597_1 *8599:C 0
*END
*D_NET *8600 8.64e-05
*CONN
*I *8601:Y O *D _2854
*I *8602:B I *L 0
*CAP
1 8600_1 8.64e-05
*RES
1 *8601:Y 8600_1 0.56
2 8600_1 *8602:B 0
*END
*D_NET *8603 0.0001932
*CONN
*I *8604:Y O *D _2855
*I *8605:A I *L 0
*CAP
1 8603_1 0.0001932
*RES
1 *8604:Y 8603_1 2.47333
2 8603_1 *8605:A 0
*END
*D_NET *8606 0.0001584
*CONN
*I *8607:Y O *D _2856
*I *8608:C I *L 0
*CAP
1 8606_1 0.0001584
*RES
1 *8607:Y 8606_1 1.02667
2 8606_1 *8608:C 0
*END
*D_NET *8609 0.00025104
*CONN
*I *8610:Y O *D _2857
*I *8611:D I *L 0
*CAP
1 8609_1 0.00025104
*RES
1 *8610:Y 8609_1 3.64
2 8609_1 *8611:D 0
*END
*D_NET *8612 5.76e-05
*CONN
*I *8613:Y O *D _2858
*I *8614:A I *L 0
*CAP
1 8612_1 5.76e-05
*RES
1 *8613:Y 8612_1 0.373333
2 8612_1 *8614:A 0
*END
*D_NET *8615 0.00048792
*CONN
*I *8616:Y O *D _2860
*I *8617:A I *L 0
*CAP
1 8615_1 0.00048792
*RES
1 *8616:Y 8615_1 7.88667
2 8615_1 *8617:A 0
*END
*D_NET *8618 0.00037728
*CONN
*I *8619:Y O *D _2861
*I *8620:C I *L 0
*CAP
1 8618_1 0.00037728
*RES
1 *8619:Y 8618_1 9.48
2 8618_1 *8620:C 0
*END
*D_NET *8621 0.00018336
*CONN
*I *8622:Y O *D _2863
*I *8623:B I *L 0
*CAP
1 8621_1 0.00018336
*RES
1 *8622:Y 8621_1 2.42667
2 8621_1 *8623:B 0
*END
*D_NET *8624 0.00017832
*CONN
*I *8625:Y O *D _2864
*I *8626:A I *L 0
*CAP
1 8624_1 0.00017832
*RES
1 *8625:Y 8624_1 2.35333
2 8624_1 *8626:A 0
*END
*D_NET *8627 0.00035064
*CONN
*I *8628:Y O *D _2865
*I *8629:C I *L 0
*CAP
1 8627_1 0.00035064
*RES
1 *8628:Y 8627_1 6.20667
2 8627_1 *8629:C 0
*END
*D_NET *8630 0.00019656
*CONN
*I *8631:Y O *D _2866
*I *8632:D I *L 0
*CAP
1 8630_1 0.00019656
*RES
1 *8631:Y 8630_1 3.12667
2 8630_1 *8632:D 0
*END
*D_NET *8633 0.00010464
*CONN
*I *8634:Y O *D _2867
*I *8635:A I *L 0
*CAP
1 8633_1 0.00010464
*RES
1 *8634:Y 8633_1 1.68
2 8633_1 *8635:A 0
*END
*D_NET *8636 0.00073488
*CONN
*I *8637:Y O *D _2869
*I *8638:A I *L 0
*CAP
1 8636_1 0.00073488
*RES
1 *8637:Y 8636_1 8.12
2 8636_1 *8638:A 0
*END
*D_NET *8639 9.456e-05
*CONN
*I *8640:Y O *D _2870
*I *8641:C I *L 0
*CAP
1 8639_1 9.456e-05
*RES
1 *8640:Y 8639_1 1.96
2 8639_1 *8641:C 0
*END
*D_NET *8642 0.00018312
*CONN
*I *8643:Y O *D _2872
*I *8644:B I *L 0
*CAP
1 8642_1 0.00018312
*RES
1 *8643:Y 8642_1 2.75333
2 8642_1 *8644:B 0
*END
*D_NET *8645 0.00021
*CONN
*I *8646:Y O *D _2873
*I *8647:A I *L 0
*CAP
1 8645_1 0.00021
*RES
1 *8646:Y 8645_1 3.5
2 8645_1 *8647:A 0
*END
*D_NET *8648 0.0004008
*CONN
*I *8649:Y O *D _2874
*I *8650:C I *L 0
*CAP
1 8648_1 0.0004008
*RES
1 *8649:Y 8648_1 4.73333
2 8648_1 *8650:C 0
*END
*D_NET *8651 0.0001224
*CONN
*I *8652:Y O *D _2875
*I *8653:D I *L 0
*CAP
1 8651_1 0.0001224
*RES
1 *8652:Y 8651_1 1.4
2 8651_1 *8653:D 0
*END
*D_NET *8654 5.76e-05
*CONN
*I *8655:Y O *D _2876
*I *8656:A I *L 0
*CAP
1 8654_1 5.76e-05
*RES
1 *8655:Y 8654_1 0.373333
2 8654_1 *8656:A 0
*END
*D_NET *8657 0.00044088
*CONN
*I *8658:Y O *D _2878
*I *8659:A I *L 0
*CAP
1 8657_1 0.00044088
*RES
1 *8658:Y 8657_1 6.58
2 8657_1 *8659:A 0
*END
*D_NET *8660 0.00032904
*CONN
*I *8661:Y O *D _2879
*I *8662:C I *L 0
*CAP
1 8660_1 0.00032904
*RES
1 *8661:Y 8660_1 4.24667
2 8660_1 *8662:C 0
*END
*D_NET *8663 8.64e-05
*CONN
*I *8664:Y O *D _2881
*I *8665:B I *L 0
*CAP
1 8663_1 8.64e-05
*RES
1 *8664:Y 8663_1 0.56
2 8663_1 *8665:B 0
*END
*D_NET *8666 0.00010824
*CONN
*I *8667:Y O *D _2882
*I *8668:A I *L 0
*CAP
1 8666_1 0.00010824
*RES
1 *8667:Y 8666_1 2.00667
2 8666_1 *8668:A 0
*END
*D_NET *8669 0.00026304
*CONN
*I *8670:Y O *D _2883
*I *8671:C I *L 0
*CAP
1 8669_1 0.00026304
*RES
1 *8670:Y 8669_1 4.90667
2 8669_1 *8671:C 0
*END
*D_NET *8672 6.72e-05
*CONN
*I *8673:Y O *D _2884
*I *8674:D I *L 0
*CAP
1 8672_1 6.72e-05
*RES
1 *8673:Y 8672_1 1.86667
2 8672_1 *8674:D 0
*END
*D_NET *8675 5.76e-05
*CONN
*I *8676:Y O *D _2885
*I *8677:A I *L 0
*CAP
1 8675_1 5.76e-05
*RES
1 *8676:Y 8675_1 0.373333
2 8675_1 *8677:A 0
*END
*D_NET *8678 6.048e-05
*CONN
*I *8679:Y O *D _2887
*I *8680:A I *L 0
*CAP
1 8678_1 6.048e-05
*RES
1 *8679:Y 8678_1 1.68
2 8678_1 *8680:A 0
*END
*D_NET *8681 2.016e-05
*CONN
*I *8682:Y O *D _2888
*I *8683:C I *L 0
*CAP
1 8681_1 2.016e-05
*RES
1 *8682:Y 8681_1 0.56
2 8681_1 *8683:C 0
*END
*D_NET *8684 3.36e-05
*CONN
*I *8685:Y O *D _2890
*I *8686:B I *L 0
*CAP
1 8684_1 3.36e-05
*RES
1 *8685:Y 8684_1 0.933333
2 8684_1 *8686:B 0
*END
*D_NET *8687 0.00012168
*CONN
*I *8688:Y O *D _2891
*I *8689:A I *L 0
*CAP
1 8687_1 0.00012168
*RES
1 *8688:Y 8687_1 2.38
2 8687_1 *8689:A 0
*END
*D_NET *8690 0.0005328
*CONN
*I *8691:Y O *D _2892
*I *8692:C I *L 0
*CAP
1 8690_1 0.0005328
*RES
1 *8691:Y 8690_1 8.96
2 8690_1 *8692:C 0
*END
*D_NET *8693 0.00059112
*CONN
*I *8694:Y O *D _2893
*I *8695:D I *L 0
*CAP
1 8693_1 0.00059112
*RES
1 *8694:Y 8693_1 7.42
2 8693_1 *8695:D 0
*END
*D_NET *8696 5.76e-05
*CONN
*I *8697:Y O *D _2894
*I *8698:A I *L 0
*CAP
1 8696_1 5.76e-05
*RES
1 *8697:Y 8696_1 0.373333
2 8696_1 *8698:A 0
*END
*D_NET *8699 0.00091848
*CONN
*I *8700:Y O *D _2896
*I *8701:A I *L 0
*CAP
1 8699_1 0.00091848
*RES
1 *8700:Y 8699_1 10.22
2 8699_1 *8701:A 0
*END
*D_NET *8702 0.00070968
*CONN
*I *8703:Y O *D _2897
*I *8704:C I *L 0
*CAP
1 8702_1 0.00070968
*RES
1 *8703:Y 8702_1 18.7133
2 8702_1 *8704:C 0
*END
*D_NET *8705 0.00021
*CONN
*I *8706:Y O *D _2899
*I *8707:B I *L 0
*CAP
1 8705_1 0.00021
*RES
1 *8706:Y 8705_1 3.5
2 8705_1 *8707:B 0
*END
*D_NET *8708 0.00024096
*CONN
*I *8709:Y O *D _2900
*I *8710:A I *L 0
*CAP
1 8708_1 0.00024096
*RES
1 *8709:Y 8708_1 2.8
2 8708_1 *8710:A 0
*END
*D_NET *8711 0.00025704
*CONN
*I *8712:Y O *D _2901
*I *8713:C I *L 0
*CAP
1 8711_1 0.00025704
*RES
1 *8712:Y 8711_1 4.80667
2 8711_1 *8713:C 0
*END
*D_NET *8714 8.736e-05
*CONN
*I *8715:Y O *D _2902
*I *8716:D I *L 0
*CAP
1 8714_1 8.736e-05
*RES
1 *8715:Y 8714_1 2.42667
2 8714_1 *8716:D 0
*END
*D_NET *8717 5.76e-05
*CONN
*I *8718:Y O *D _2903
*I *8719:A I *L 0
*CAP
1 8717_1 5.76e-05
*RES
1 *8718:Y 8717_1 0.373333
2 8717_1 *8719:A 0
*END
*D_NET *8720 0.0006564
*CONN
*I *8721:Y O *D _2905
*I *8722:A I *L 0
*CAP
1 8720_1 0.0006564
*RES
1 *8721:Y 8720_1 16.5667
2 8720_1 *8722:A 0
*END
*D_NET *8723 0.00153192
*CONN
*I *8724:Y O *D _2906
*I *8725:C I *L 0
*CAP
1 8723_1 0.00153192
*RES
1 *8724:Y 8723_1 22.3533
2 8723_1 *8725:C 0
*END
*D_NET *8726 8.64e-05
*CONN
*I *8727:Y O *D _2908
*I *8728:B I *L 0
*CAP
1 8726_1 8.64e-05
*RES
1 *8727:Y 8726_1 0.56
2 8726_1 *8728:B 0
*END
*D_NET *8729 0.00013872
*CONN
*I *8730:Y O *D _2909
*I *8731:A I *L 0
*CAP
1 8729_1 0.00013872
*RES
1 *8730:Y 8729_1 1.96
2 8729_1 *8731:A 0
*END
*D_NET *8732 0.0001584
*CONN
*I *8733:Y O *D _2910
*I *8734:C I *L 0
*CAP
1 8732_1 0.0001584
*RES
1 *8733:Y 8732_1 1.02667
2 8732_1 *8734:C 0
*END
*D_NET *8735 9.408e-05
*CONN
*I *8736:Y O *D _2911
*I *8737:D I *L 0
*CAP
1 8735_1 9.408e-05
*RES
1 *8736:Y 8735_1 2.61333
2 8735_1 *8737:D 0
*END
*D_NET *8738 5.76e-05
*CONN
*I *8739:Y O *D _2912
*I *8740:A I *L 0
*CAP
1 8738_1 5.76e-05
*RES
1 *8739:Y 8738_1 0.373333
2 8738_1 *8740:A 0
*END
*D_NET *8741 8.112e-05
*CONN
*I *8742:Y O *D _2914
*I *8743:A I *L 0
*CAP
1 8741_1 8.112e-05
*RES
1 *8742:Y 8741_1 1.58667
2 8741_1 *8743:A 0
*END
*D_NET *8744 6.768e-05
*CONN
*I *8745:Y O *D _2915
*I *8746:C I *L 0
*CAP
1 8744_1 6.768e-05
*RES
1 *8745:Y 8744_1 1.21333
2 8744_1 *8746:C 0
*END
*D_NET *8747 6.048e-05
*CONN
*I *8748:Y O *D _2917
*I *8749:B I *L 0
*CAP
1 8747_1 6.048e-05
*RES
1 *8748:Y 8747_1 1.68
2 8747_1 *8749:B 0
*END
*D_NET *8750 8.64e-05
*CONN
*I *8751:Y O *D _2918
*I *8752:A I *L 0
*CAP
1 8750_1 8.64e-05
*RES
1 *8751:Y 8750_1 0.56
2 8750_1 *8752:A 0
*END
*D_NET *8753 0.0002004
*CONN
*I *8754:Y O *D _2919
*I *8755:C I *L 0
*CAP
1 8753_1 0.0002004
*RES
1 *8754:Y 8753_1 2.00667
2 8753_1 *8755:C 0
*END
*D_NET *8756 0.00025056
*CONN
*I *8757:Y O *D _2920
*I *8758:D I *L 0
*CAP
1 8756_1 0.00025056
*RES
1 *8757:Y 8756_1 4.29333
2 8756_1 *8758:D 0
*END
*D_NET *8759 0.00322272
*CONN
*I *8760:Y O *D _2921
*I *8761:A I *L 0
*CAP
1 8759_1 0.00322272
*RES
1 *8760:Y 8759_1 37.52
2 8759_1 *8761:A 0
*END
*D_NET *8762 5.76e-05
*CONN
*I *8763:Y O *D _2923
*I *8764:A I *L 0
*CAP
1 8762_1 5.76e-05
*RES
1 *8763:Y 8762_1 0.373333
2 8762_1 *8764:A 0
*END
*D_NET *8765 0.00044832
*CONN
*I *8766:Y O *D _2924
*I *8767:C I *L 0
*CAP
1 8765_1 0.00044832
*RES
1 *8766:Y 8765_1 5.78667
2 8765_1 *8767:C 0
*END
*D_NET *8768 8.64e-05
*CONN
*I *8769:Y O *D _2926
*I *8770:B I *L 0
*CAP
1 8768_1 8.64e-05
*RES
1 *8769:Y 8768_1 0.56
2 8768_1 *8770:B 0
*END
*D_NET *8771 0.00019176
*CONN
*I *8772:Y O *D _2927
*I *8773:A I *L 0
*CAP
1 8771_1 0.00019176
*RES
1 *8772:Y 8771_1 2.19333
2 8771_1 *8773:A 0
*END
*D_NET *8774 0.0010044
*CONN
*I *8775:Y O *D _2928
*I *8776:C I *L 0
*CAP
1 8774_1 0.0010044
*RES
1 *8775:Y 8774_1 14.2333
2 8774_1 *8776:C 0
*END
*D_NET *8777 0.00218112
*CONN
*I *8778:Y O *D _2929
*I *8779:D I *L 0
*CAP
1 8777_1 0.00218112
*RES
1 *8778:Y 8777_1 22.92
2 8777_1 *8779:D 0
*END
*D_NET *8780 5.76e-05
*CONN
*I *8781:Y O *D _2930
*I *8782:A I *L 0
*CAP
1 8780_1 5.76e-05
*RES
1 *8781:Y 8780_1 0.373333
2 8780_1 *8782:A 0
*END
*D_NET *8783 0.00021
*CONN
*I *8784:Y O *D _2932
*I *8785:A I *L 0
*CAP
1 8783_1 0.00021
*RES
1 *8784:Y 8783_1 3.5
2 8783_1 *8785:A 0
*END
*D_NET *8786 0.00018336
*CONN
*I *8787:Y O *D _2933
*I *8788:C I *L 0
*CAP
1 8786_1 0.00018336
*RES
1 *8787:Y 8786_1 2.42667
2 8786_1 *8788:C 0
*END
*D_NET *8789 8.64e-05
*CONN
*I *8790:Y O *D _2935
*I *8791:B I *L 0
*CAP
1 8789_1 8.64e-05
*RES
1 *8790:Y 8789_1 0.56
2 8789_1 *8791:B 0
*END
*D_NET *8792 4.704e-05
*CONN
*I *8793:Y O *D _2936
*I *8794:A I *L 0
*CAP
1 8792_1 4.704e-05
*RES
1 *8793:Y 8792_1 1.30667
2 8792_1 *8794:A 0
*END
*D_NET *8795 0.0009636
*CONN
*I *8796:Y O *D _2937
*I *8797:C I *L 0
*CAP
1 8795_1 0.0009636
*RES
1 *8796:Y 8795_1 13.7667
2 8795_1 *8797:C 0
*END
*D_NET *8798 0.00029136
*CONN
*I *8799:Y O *D _2938
*I *8800:D I *L 0
*CAP
1 8798_1 0.00029136
*RES
1 *8799:Y 8798_1 4.76
2 8798_1 *8800:D 0
*END
*D_NET *8801 5.76e-05
*CONN
*I *8802:Y O *D _2939
*I *8803:A I *L 0
*CAP
1 8801_1 5.76e-05
*RES
1 *8802:Y 8801_1 0.373333
2 8801_1 *8803:A 0
*END
*D_NET *8804 0.00012168
*CONN
*I *8805:Y O *D _2941
*I *8806:A I *L 0
*CAP
1 8804_1 0.00012168
*RES
1 *8805:Y 8804_1 2.38
2 8804_1 *8806:A 0
*END
*D_NET *8807 0.00019008
*CONN
*I *8808:Y O *D _2942
*I *8809:C I *L 0
*CAP
1 8807_1 0.00019008
*RES
1 *8808:Y 8807_1 2.61333
2 8807_1 *8809:C 0
*END
*D_NET *8810 8.64e-05
*CONN
*I *8811:Y O *D _2944
*I *8812:B I *L 0
*CAP
1 8810_1 8.64e-05
*RES
1 *8811:Y 8810_1 0.56
2 8810_1 *8812:B 0
*END
*D_NET *8813 0.00013872
*CONN
*I *8814:Y O *D _2945
*I *8815:A I *L 0
*CAP
1 8813_1 0.00013872
*RES
1 *8814:Y 8813_1 1.96
2 8813_1 *8815:A 0
*END
*D_NET *8816 0.00066168
*CONN
*I *8817:Y O *D _2946
*I *8818:C I *L 0
*CAP
1 8816_1 0.00066168
*RES
1 *8817:Y 8816_1 12.18
2 8816_1 *8818:C 0
*END
*D_NET *8819 0.00018888
*CONN
*I *8820:Y O *D _2947
*I *8821:D I *L 0
*CAP
1 8819_1 0.00018888
*RES
1 *8820:Y 8819_1 4.24667
2 8819_1 *8821:D 0
*END
*D_NET *8822 5.76e-05
*CONN
*I *8823:Y O *D _2948
*I *8824:A I *L 0
*CAP
1 8822_1 5.76e-05
*RES
1 *8823:Y 8822_1 0.373333
2 8822_1 *8824:A 0
*END
*D_NET *8825 0.00018312
*CONN
*I *8826:Y O *D _2950
*I *8827:A I *L 0
*CAP
1 8825_1 0.00018312
*RES
1 *8826:Y 8825_1 2.75333
2 8825_1 *8827:A 0
*END
*D_NET *8828 0.00018336
*CONN
*I *8829:Y O *D _2951
*I *8830:C I *L 0
*CAP
1 8828_1 0.00018336
*RES
1 *8829:Y 8828_1 2.42667
2 8828_1 *8830:C 0
*END
*D_NET *8831 0.0001524
*CONN
*I *8832:Y O *D _2953
*I *8833:B I *L 0
*CAP
1 8831_1 0.0001524
*RES
1 *8832:Y 8831_1 2.00667
2 8831_1 *8833:B 0
*END
*D_NET *8834 8.64e-05
*CONN
*I *8835:Y O *D _2954
*I *8836:A I *L 0
*CAP
1 8834_1 8.64e-05
*RES
1 *8835:Y 8834_1 0.56
2 8834_1 *8836:A 0
*END
*D_NET *8837 0.0002448
*CONN
*I *8838:Y O *D _2955
*I *8839:C I *L 0
*CAP
1 8837_1 0.0002448
*RES
1 *8838:Y 8837_1 2.8
2 8837_1 *8839:C 0
*END
*D_NET *8840 0.00038616
*CONN
*I *8841:Y O *D _2956
*I *8842:D I *L 0
*CAP
1 8840_1 0.00038616
*RES
1 *8841:Y 8840_1 6.39333
2 8840_1 *8842:D 0
*END
*D_NET *8843 5.76e-05
*CONN
*I *8844:Y O *D _2957
*I *8845:A I *L 0
*CAP
1 8843_1 5.76e-05
*RES
1 *8844:Y 8843_1 0.373333
2 8843_1 *8845:A 0
*END
*D_NET *8846 0.00011472
*CONN
*I *8847:Y O *D _2959
*I *8848:A I *L 0
*CAP
1 8846_1 0.00011472
*RES
1 *8847:Y 8846_1 2.52
2 8846_1 *8848:A 0
*END
*D_NET *8849 0.00120384
*CONN
*I *8850:Y O *D _2960
*I *8851:C I *L 0
*CAP
1 8849_1 0.00120384
*RES
1 *8850:Y 8849_1 22.7733
2 8849_1 *8851:C 0
*END
*D_NET *8852 8.64e-05
*CONN
*I *8853:Y O *D _2962
*I *8854:B I *L 0
*CAP
1 8852_1 8.64e-05
*RES
1 *8853:Y 8852_1 0.56
2 8852_1 *8854:B 0
*END
*D_NET *8855 0.0001932
*CONN
*I *8856:Y O *D _2963
*I *8857:A I *L 0
*CAP
1 8855_1 0.0001932
*RES
1 *8856:Y 8855_1 2.47333
2 8855_1 *8857:A 0
*END
*D_NET *8858 0.00014736
*CONN
*I *8859:Y O *D _2964
*I *8860:C I *L 0
*CAP
1 8858_1 0.00014736
*RES
1 *8859:Y 8858_1 1.58667
2 8858_1 *8860:C 0
*END
*D_NET *8861 0.00012768
*CONN
*I *8862:Y O *D _2965
*I *8863:D I *L 0
*CAP
1 8861_1 0.00012768
*RES
1 *8862:Y 8861_1 3.54667
2 8861_1 *8863:D 0
*END
*D_NET *8864 0.0001836
*CONN
*I *8865:Y O *D _2966
*I *8866:A I *L 0
*CAP
1 8864_1 0.0001836
*RES
1 *8865:Y 8864_1 2.1
2 8864_1 *8866:A 0
*END
*D_NET *8867 5.76e-05
*CONN
*I *8868:Y O *D _2968
*I *8869:A I *L 0
*CAP
1 8867_1 5.76e-05
*RES
1 *8868:Y 8867_1 0.373333
2 8867_1 *8869:A 0
*END
*D_NET *8870 0.0001584
*CONN
*I *8871:Y O *D _2969
*I *8872:C I *L 0
*CAP
1 8870_1 0.0001584
*RES
1 *8871:Y 8870_1 1.02667
2 8870_1 *8872:C 0
*END
*D_NET *8873 8.64e-05
*CONN
*I *8874:Y O *D _2971
*I *8875:B I *L 0
*CAP
1 8873_1 8.64e-05
*RES
1 *8874:Y 8873_1 0.56
2 8873_1 *8875:B 0
*END
*D_NET *8876 9.792e-05
*CONN
*I *8877:Y O *D _2972
*I *8878:A I *L 0
*CAP
1 8876_1 9.792e-05
*RES
1 *8877:Y 8876_1 1.49333
2 8876_1 *8878:A 0
*END
*D_NET *8879 9.48e-05
*CONN
*I *8880:Y O *D _2973
*I *8881:C I *L 0
*CAP
1 8879_1 9.48e-05
*RES
1 *8880:Y 8879_1 1.63333
2 8879_1 *8881:C 0
*END
*D_NET *8882 0.00015504
*CONN
*I *8883:Y O *D _2974
*I *8884:D I *L 0
*CAP
1 8882_1 0.00015504
*RES
1 *8883:Y 8882_1 3.64
2 8882_1 *8884:D 0
*END
*D_NET *8885 5.76e-05
*CONN
*I *8886:Y O *D _2975
*I *8887:A I *L 0
*CAP
1 8885_1 5.76e-05
*RES
1 *8886:Y 8885_1 0.373333
2 8885_1 *8887:A 0
*END
*D_NET *8888 5.76e-05
*CONN
*I *8889:Y O *D _2977
*I *8890:A I *L 0
*CAP
1 8888_1 5.76e-05
*RES
1 *8889:Y 8888_1 0.373333
2 8888_1 *8890:A 0
*END
*D_NET *8891 4.704e-05
*CONN
*I *8892:Y O *D _2978
*I *8893:C I *L 0
*CAP
1 8891_1 4.704e-05
*RES
1 *8892:Y 8891_1 1.30667
2 8891_1 *8893:C 0
*END
*D_NET *8894 0.0002496
*CONN
*I *8895:Y O *D _2980
*I *8896:B I *L 0
*CAP
1 8894_1 0.0002496
*RES
1 *8895:Y 8894_1 2.61333
2 8894_1 *8896:B 0
*END
*D_NET *8897 8.64e-05
*CONN
*I *8898:Y O *D _2981
*I *8899:A I *L 0
*CAP
1 8897_1 8.64e-05
*RES
1 *8898:Y 8897_1 0.56
2 8897_1 *8899:A 0
*END
*D_NET *8900 0.0002244
*CONN
*I *8901:Y O *D _2982
*I *8902:C I *L 0
*CAP
1 8900_1 0.0002244
*RES
1 *8901:Y 8900_1 2.56667
2 8900_1 *8902:C 0
*END
*D_NET *8903 0.00017544
*CONN
*I *8904:Y O *D _2983
*I *8905:D I *L 0
*CAP
1 8903_1 0.00017544
*RES
1 *8904:Y 8903_1 2.00667
2 8903_1 *8905:D 0
*END
*D_NET *8906 0.00025296
*CONN
*I *8907:Y O *D _2984
*I *8908:A I *L 0
*CAP
1 8906_1 0.00025296
*RES
1 *8907:Y 8906_1 5.13333
2 8906_1 *8908:A 0
*END
*D_NET *8909 0.00036696
*CONN
*I *8910:Y O *D _2986
*I *8911:A I *L 0
*CAP
1 8909_1 0.00036696
*RES
1 *8910:Y 8909_1 4.52667
2 8909_1 *8911:A 0
*END
*D_NET *8912 4.032e-05
*CONN
*I *8913:Y O *D _2987
*I *8914:C I *L 0
*CAP
1 8912_1 4.032e-05
*RES
1 *8913:Y 8912_1 1.12
2 8912_1 *8914:C 0
*END
*D_NET *8915 8.64e-05
*CONN
*I *8916:Y O *D _2989
*I *8917:B I *L 0
*CAP
1 8915_1 8.64e-05
*RES
1 *8916:Y 8915_1 0.56
2 8915_1 *8917:B 0
*END
*D_NET *8918 0.0001728
*CONN
*I *8919:Y O *D _2990
*I *8920:A I *L 0
*CAP
1 8918_1 0.0001728
*RES
1 *8919:Y 8918_1 2.24
2 8918_1 *8920:A 0
*END
*D_NET *8921 0.00012144
*CONN
*I *8922:Y O *D _2991
*I *8923:C I *L 0
*CAP
1 8921_1 0.00012144
*RES
1 *8922:Y 8921_1 2.70667
2 8921_1 *8923:C 0
*END
*D_NET *8924 0.00013512
*CONN
*I *8925:Y O *D _2992
*I *8926:D I *L 0
*CAP
1 8924_1 0.00013512
*RES
1 *8925:Y 8924_1 2.75333
2 8924_1 *8926:D 0
*END
*D_NET *8927 5.76e-05
*CONN
*I *8928:Y O *D _2993
*I *8929:A I *L 0
*CAP
1 8927_1 5.76e-05
*RES
1 *8928:Y 8927_1 0.373333
2 8927_1 *8929:A 0
*END
*D_NET *8930 0.00023736
*CONN
*I *8931:Y O *D _2995
*I *8932:A I *L 0
*CAP
1 8930_1 0.00023736
*RES
1 *8931:Y 8930_1 3.59333
2 8930_1 *8932:A 0
*END
*D_NET *8933 0.00013512
*CONN
*I *8934:Y O *D _2996
*I *8935:C I *L 0
*CAP
1 8933_1 0.00013512
*RES
1 *8934:Y 8933_1 2.75333
2 8933_1 *8935:C 0
*END
*D_NET *8936 8.64e-05
*CONN
*I *8937:Y O *D _2998
*I *8938:B I *L 0
*CAP
1 8936_1 8.64e-05
*RES
1 *8937:Y 8936_1 0.56
2 8936_1 *8938:B 0
*END
*D_NET *8939 0.00014904
*CONN
*I *8940:Y O *D _2999
*I *8941:A I *L 0
*CAP
1 8939_1 0.00014904
*RES
1 *8940:Y 8939_1 2.47333
2 8939_1 *8941:A 0
*END
*D_NET *8942 0.00056208
*CONN
*I *8943:Y O *D _3000
*I *8944:C I *L 0
*CAP
1 8942_1 0.00056208
*RES
1 *8943:Y 8942_1 9.61333
2 8942_1 *8944:C 0
*END
*D_NET *8945 0.0002652
*CONN
*I *8946:Y O *D _3001
*I *8947:D I *L 0
*CAP
1 8945_1 0.0002652
*RES
1 *8946:Y 8945_1 3.03333
2 8945_1 *8947:D 0
*END
*D_NET *8948 0.00014208
*CONN
*I *8949:Y O *D _3002
*I *8950:A I *L 0
*CAP
1 8948_1 0.00014208
*RES
1 *8949:Y 8948_1 2.61333
2 8948_1 *8950:A 0
*END
*D_NET *8951 0.00054408
*CONN
*I *8952:Y O *D _3004
*I *8953:A I *L 0
*CAP
1 8951_1 0.00054408
*RES
1 *8952:Y 8951_1 5.71333
2 8951_1 *8953:A 0
*END
*D_NET *8954 0.0004992
*CONN
*I *8955:Y O *D _3005
*I *8956:C I *L 0
*CAP
1 8954_1 0.0004992
*RES
1 *8955:Y 8954_1 8.02667
2 8954_1 *8956:C 0
*END
*D_NET *8957 8.64e-05
*CONN
*I *8958:Y O *D _3007
*I *8959:B I *L 0
*CAP
1 8957_1 8.64e-05
*RES
1 *8958:Y 8957_1 0.56
2 8957_1 *8959:B 0
*END
*D_NET *8960 0.00013872
*CONN
*I *8961:Y O *D _3008
*I *8962:A I *L 0
*CAP
1 8960_1 0.00013872
*RES
1 *8961:Y 8960_1 1.96
2 8960_1 *8962:A 0
*END
*D_NET *8963 0.00033096
*CONN
*I *8964:Y O *D _3009
*I *8965:C I *L 0
*CAP
1 8963_1 0.00033096
*RES
1 *8964:Y 8963_1 6.86
2 8963_1 *8965:C 0
*END
*D_NET *8966 0.0001224
*CONN
*I *8967:Y O *D _3010
*I *8968:D I *L 0
*CAP
1 8966_1 0.0001224
*RES
1 *8967:Y 8966_1 1.4
2 8966_1 *8968:D 0
*END
*D_NET *8969 5.76e-05
*CONN
*I *8970:Y O *D _3011
*I *8971:A I *L 0
*CAP
1 8969_1 5.76e-05
*RES
1 *8970:Y 8969_1 0.373333
2 8969_1 *8971:A 0
*END
*D_NET *8972 5.76e-05
*CONN
*I *8973:Y O *D _3013
*I *8974:A I *L 0
*CAP
1 8972_1 5.76e-05
*RES
1 *8973:Y 8972_1 0.373333
2 8972_1 *8974:A 0
*END
*D_NET *8975 0.00022416
*CONN
*I *8976:Y O *D _3014
*I *8977:C I *L 0
*CAP
1 8975_1 0.00022416
*RES
1 *8976:Y 8975_1 2.89333
2 8975_1 *8977:C 0
*END
*D_NET *8978 8.64e-05
*CONN
*I *8979:Y O *D _3016
*I *8980:B I *L 0
*CAP
1 8978_1 8.64e-05
*RES
1 *8979:Y 8978_1 0.56
2 8978_1 *8980:B 0
*END
*D_NET *8981 8.784e-05
*CONN
*I *8982:Y O *D _3017
*I *8983:A I *L 0
*CAP
1 8981_1 8.784e-05
*RES
1 *8982:Y 8981_1 1.77333
2 8981_1 *8983:A 0
*END
*D_NET *8984 0.0001428
*CONN
*I *8985:Y O *D _3018
*I *8986:C I *L 0
*CAP
1 8984_1 0.0001428
*RES
1 *8985:Y 8984_1 1.63333
2 8984_1 *8986:C 0
*END
*D_NET *8987 0.0002004
*CONN
*I *8988:Y O *D _3019
*I *8989:D I *L 0
*CAP
1 8987_1 0.0002004
*RES
1 *8988:Y 8987_1 3.76667
2 8987_1 *8989:D 0
*END
*D_NET *8990 5.76e-05
*CONN
*I *8991:Y O *D _3020
*I *8992:A I *L 0
*CAP
1 8990_1 5.76e-05
*RES
1 *8991:Y 8990_1 0.373333
2 8990_1 *8992:A 0
*END
*D_NET *8993 0.00028176
*CONN
*I *8994:Y O *D _3022
*I *8995:A I *L 0
*CAP
1 8993_1 0.00028176
*RES
1 *8994:Y 8993_1 3.26667
2 8993_1 *8995:A 0
*END
*D_NET *8996 0.00051288
*CONN
*I *8997:Y O *D _3023
*I *8998:C I *L 0
*CAP
1 8996_1 0.00051288
*RES
1 *8997:Y 8996_1 11.2467
2 8996_1 *8998:C 0
*END
*D_NET *8999 8.64e-05
*CONN
*I *9000:Y O *D _3025
*I *9001:B I *L 0
*CAP
1 8999_1 8.64e-05
*RES
1 *9000:Y 8999_1 0.56
2 8999_1 *9001:B 0
*END
*D_NET *9002 0.00016944
*CONN
*I *9003:Y O *D _3026
*I *9004:A I *L 0
*CAP
1 9002_1 0.00016944
*RES
1 *9003:Y 9002_1 2.70667
2 9002_1 *9004:A 0
*END
*D_NET *9005 0.0001584
*CONN
*I *9006:Y O *D _3027
*I *9007:C I *L 0
*CAP
1 9005_1 0.0001584
*RES
1 *9006:Y 9005_1 1.02667
2 9005_1 *9007:C 0
*END
*D_NET *9008 0.00017616
*CONN
*I *9009:Y O *D _3028
*I *9010:D I *L 0
*CAP
1 9008_1 0.00017616
*RES
1 *9009:Y 9008_1 2.89333
2 9008_1 *9010:D 0
*END
*D_NET *9011 5.76e-05
*CONN
*I *9012:Y O *D _3029
*I *9013:A I *L 0
*CAP
1 9011_1 5.76e-05
*RES
1 *9012:Y 9011_1 0.373333
2 9011_1 *9013:A 0
*END
*D_NET *9014 7.44e-05
*CONN
*I *9015:Y O *D _3031
*I *9016:A I *L 0
*CAP
1 9014_1 7.44e-05
*RES
1 *9015:Y 9014_1 1.4
2 9014_1 *9016:A 0
*END
*D_NET *9017 0.000204
*CONN
*I *9018:Y O *D _3032
*I *9019:C I *L 0
*CAP
1 9017_1 0.000204
*RES
1 *9018:Y 9017_1 2.33333
2 9017_1 *9019:C 0
*END
*D_NET *9020 8.64e-05
*CONN
*I *9021:Y O *D _3034
*I *9022:B I *L 0
*CAP
1 9020_1 8.64e-05
*RES
1 *9021:Y 9020_1 0.56
2 9020_1 *9022:B 0
*END
*D_NET *9023 8.784e-05
*CONN
*I *9024:Y O *D _3035
*I *9025:A I *L 0
*CAP
1 9023_1 8.784e-05
*RES
1 *9024:Y 9023_1 1.77333
2 9023_1 *9025:A 0
*END
*D_NET *9026 0.00010824
*CONN
*I *9027:Y O *D _3036
*I *9028:C I *L 0
*CAP
1 9026_1 0.00010824
*RES
1 *9027:Y 9026_1 2.00667
2 9026_1 *9028:C 0
*END
*D_NET *9029 0.00012768
*CONN
*I *9030:Y O *D _3037
*I *9031:D I *L 0
*CAP
1 9029_1 0.00012768
*RES
1 *9030:Y 9029_1 3.54667
2 9029_1 *9031:D 0
*END
*D_NET *9032 5.76e-05
*CONN
*I *9033:Y O *D _3038
*I *9034:A I *L 0
*CAP
1 9032_1 5.76e-05
*RES
1 *9033:Y 9032_1 0.373333
2 9032_1 *9034:A 0
*END
*D_NET *9035 0.00018
*CONN
*I *9036:Y O *D _3040
*I *9037:A I *L 0
*CAP
1 9035_1 0.00018
*RES
1 *9036:Y 9035_1 1.77333
2 9035_1 *9037:A 0
*END
*D_NET *9038 0.000264
*CONN
*I *9039:Y O *D _3041
*I *9040:C I *L 0
*CAP
1 9038_1 0.000264
*RES
1 *9039:Y 9038_1 4.66667
2 9038_1 *9040:C 0
*END
*D_NET *9041 8.64e-05
*CONN
*I *9042:Y O *D _3043
*I *9043:B I *L 0
*CAP
1 9041_1 8.64e-05
*RES
1 *9042:Y 9041_1 0.56
2 9041_1 *9043:B 0
*END
*D_NET *9044 8.784e-05
*CONN
*I *9045:Y O *D _3044
*I *9046:A I *L 0
*CAP
1 9044_1 8.784e-05
*RES
1 *9045:Y 9044_1 1.77333
2 9044_1 *9046:A 0
*END
*D_NET *9047 0.00046656
*CONN
*I *9048:Y O *D _3045
*I *9049:C I *L 0
*CAP
1 9047_1 0.00046656
*RES
1 *9048:Y 9047_1 8.96
2 9047_1 *9049:C 0
*END
*D_NET *9050 0.0001752
*CONN
*I *9051:Y O *D _3046
*I *9052:D I *L 0
*CAP
1 9050_1 0.0001752
*RES
1 *9051:Y 9050_1 4.2
2 9050_1 *9052:D 0
*END
*D_NET *9053 5.76e-05
*CONN
*I *9054:Y O *D _3047
*I *9055:A I *L 0
*CAP
1 9053_1 5.76e-05
*RES
1 *9054:Y 9053_1 0.373333
2 9053_1 *9055:A 0
*END
*D_NET *9056 0.00032376
*CONN
*I *9057:Y O *D _3049
*I *9058:A I *L 0
*CAP
1 9056_1 0.00032376
*RES
1 *9057:Y 9056_1 4.19333
2 9056_1 *9058:A 0
*END
*D_NET *9059 0.00111984
*CONN
*I *9060:Y O *D _3050
*I *9061:C I *L 0
*CAP
1 9059_1 0.00111984
*RES
1 *9060:Y 9059_1 13.9067
2 9059_1 *9061:C 0
*END
*D_NET *9062 0.0002016
*CONN
*I *9063:Y O *D _3052
*I *9064:B I *L 0
*CAP
1 9062_1 0.0002016
*RES
1 *9063:Y 9062_1 1.30667
2 9062_1 *9064:B 0
*END
*D_NET *9065 0.00020976
*CONN
*I *9066:Y O *D _3053
*I *9067:A I *L 0
*CAP
1 9065_1 0.00020976
*RES
1 *9066:Y 9065_1 2.70667
2 9065_1 *9067:A 0
*END
*D_NET *9068 0.00042768
*CONN
*I *9069:Y O *D _3054
*I *9070:C I *L 0
*CAP
1 9068_1 0.00042768
*RES
1 *9069:Y 9068_1 5.88
2 9068_1 *9070:C 0
*END
*D_NET *9071 0.0001224
*CONN
*I *9072:Y O *D _3055
*I *9073:D I *L 0
*CAP
1 9071_1 0.0001224
*RES
1 *9072:Y 9071_1 1.4
2 9071_1 *9073:D 0
*END
*D_NET *9074 5.76e-05
*CONN
*I *9075:Y O *D _3056
*I *9076:A I *L 0
*CAP
1 9074_1 5.76e-05
*RES
1 *9075:Y 9074_1 0.373333
2 9074_1 *9076:A 0
*END
*D_NET *9077 0.00024432
*CONN
*I *9078:Y O *D _3058
*I *9079:A I *L 0
*CAP
1 9077_1 0.00024432
*RES
1 *9078:Y 9077_1 3.45333
2 9077_1 *9079:A 0
*END
*D_NET *9080 0.0001584
*CONN
*I *9081:Y O *D _3059
*I *9082:C I *L 0
*CAP
1 9080_1 0.0001584
*RES
1 *9081:Y 9080_1 1.02667
2 9080_1 *9082:C 0
*END
*D_NET *9083 8.64e-05
*CONN
*I *9084:Y O *D _3061
*I *9085:B I *L 0
*CAP
1 9083_1 8.64e-05
*RES
1 *9084:Y 9083_1 0.56
2 9083_1 *9085:B 0
*END
*D_NET *9086 0.00013872
*CONN
*I *9087:Y O *D _3062
*I *9088:A I *L 0
*CAP
1 9086_1 0.00013872
*RES
1 *9087:Y 9086_1 1.96
2 9086_1 *9088:A 0
*END
*D_NET *9089 0.00050448
*CONN
*I *9090:Y O *D _3063
*I *9091:C I *L 0
*CAP
1 9089_1 0.00050448
*RES
1 *9090:Y 9089_1 6.25333
2 9089_1 *9091:C 0
*END
*D_NET *9092 0.00015168
*CONN
*I *9093:Y O *D _3064
*I *9094:D I *L 0
*CAP
1 9092_1 0.00015168
*RES
1 *9093:Y 9092_1 2.98667
2 9092_1 *9094:D 0
*END
*D_NET *9095 5.76e-05
*CONN
*I *9096:Y O *D _3065
*I *9097:A I *L 0
*CAP
1 9095_1 5.76e-05
*RES
1 *9096:Y 9095_1 0.373333
2 9095_1 *9097:A 0
*END
*D_NET *9098 0.00134376
*CONN
*I *9099:Y O *D _3067
*I *9100:A I *L 0
*CAP
1 9098_1 0.00134376
*RES
1 *9099:Y 9098_1 17.1267
2 9098_1 *9100:A 0
*END
*D_NET *9101 0.00029088
*CONN
*I *9102:Y O *D _3068
*I *9103:C I *L 0
*CAP
1 9101_1 0.00029088
*RES
1 *9102:Y 9101_1 5.41333
2 9101_1 *9103:C 0
*END
*D_NET *9104 0.000264
*CONN
*I *9105:Y O *D _3070
*I *9106:B I *L 0
*CAP
1 9104_1 0.000264
*RES
1 *9105:Y 9104_1 4.66667
2 9104_1 *9106:B 0
*END
*D_NET *9107 0.00020328
*CONN
*I *9108:Y O *D _3071
*I *9109:A I *L 0
*CAP
1 9107_1 0.00020328
*RES
1 *9108:Y 9107_1 3.31333
2 9107_1 *9109:A 0
*END
*D_NET *9110 6.096e-05
*CONN
*I *9111:Y O *D _3072
*I *9112:C I *L 0
*CAP
1 9110_1 6.096e-05
*RES
1 *9111:Y 9110_1 1.02667
2 9110_1 *9112:C 0
*END
*D_NET *9113 0.00020376
*CONN
*I *9114:Y O *D _3073
*I *9115:D I *L 0
*CAP
1 9113_1 0.00020376
*RES
1 *9114:Y 9113_1 2.66
2 9113_1 *9115:D 0
*END
*D_NET *9116 5.76e-05
*CONN
*I *9117:Y O *D _3074
*I *9118:A I *L 0
*CAP
1 9116_1 5.76e-05
*RES
1 *9117:Y 9116_1 0.373333
2 9116_1 *9118:A 0
*END
*D_NET *9119 5.76e-05
*CONN
*I *9120:Y O *D _3076
*I *9121:A I *L 0
*CAP
1 9119_1 5.76e-05
*RES
1 *9120:Y 9119_1 0.373333
2 9119_1 *9121:A 0
*END
*D_NET *9122 0.00018096
*CONN
*I *9123:Y O *D _3077
*I *9124:C I *L 0
*CAP
1 9122_1 0.00018096
*RES
1 *9123:Y 9122_1 2.52
2 9122_1 *9124:C 0
*END
*D_NET *9125 0.0002004
*CONN
*I *9126:Y O *D _3079
*I *9127:B I *L 0
*CAP
1 9125_1 0.0002004
*RES
1 *9126:Y 9125_1 2.00667
2 9125_1 *9127:B 0
*END
*D_NET *9128 8.64e-05
*CONN
*I *9129:Y O *D _3080
*I *9130:A I *L 0
*CAP
1 9128_1 8.64e-05
*RES
1 *9129:Y 9128_1 0.56
2 9128_1 *9130:A 0
*END
*D_NET *9131 0.00101592
*CONN
*I *9132:Y O *D _3081
*I *9133:C I *L 0
*CAP
1 9131_1 0.00101592
*RES
1 *9132:Y 9131_1 17.22
2 9131_1 *9133:C 0
*END
*D_NET *9134 0.00034464
*CONN
*I *9135:Y O *D _3082
*I *9136:D I *L 0
*CAP
1 9134_1 0.00034464
*RES
1 *9135:Y 9134_1 3.77333
2 9134_1 *9136:D 0
*END
*D_NET *9137 5.76e-05
*CONN
*I *9138:Y O *D _3083
*I *9139:A I *L 0
*CAP
1 9137_1 5.76e-05
*RES
1 *9138:Y 9137_1 0.373333
2 9137_1 *9139:A 0
*END
*D_NET *9140 0.00036696
*CONN
*I *9141:Y O *D _3085
*I *9142:A I *L 0
*CAP
1 9140_1 0.00036696
*RES
1 *9141:Y 9140_1 4.52667
2 9140_1 *9142:A 0
*END
*D_NET *9143 0.00058488
*CONN
*I *9144:Y O *D _3086
*I *9145:C I *L 0
*CAP
1 9143_1 0.00058488
*RES
1 *9144:Y 9143_1 6.18
2 9143_1 *9145:C 0
*END
*D_NET *9146 8.64e-05
*CONN
*I *9147:Y O *D _3088
*I *9148:B I *L 0
*CAP
1 9146_1 8.64e-05
*RES
1 *9147:Y 9146_1 0.56
2 9146_1 *9148:B 0
*END
*D_NET *9149 0.00010824
*CONN
*I *9150:Y O *D _3089
*I *9151:A I *L 0
*CAP
1 9149_1 0.00010824
*RES
1 *9150:Y 9149_1 2.00667
2 9149_1 *9151:A 0
*END
*D_NET *9152 0.0002916
*CONN
*I *9153:Y O *D _3090
*I *9154:C I *L 0
*CAP
1 9152_1 0.0002916
*RES
1 *9153:Y 9152_1 4.43333
2 9152_1 *9154:C 0
*END
*D_NET *9155 0.00021264
*CONN
*I *9156:Y O *D _3091
*I *9157:D I *L 0
*CAP
1 9155_1 0.00021264
*RES
1 *9156:Y 9155_1 4.01333
2 9155_1 *9157:D 0
*END
*D_NET *9158 5.76e-05
*CONN
*I *9159:Y O *D _3092
*I *9160:A I *L 0
*CAP
1 9158_1 5.76e-05
*RES
1 *9159:Y 9158_1 0.373333
2 9158_1 *9160:A 0
*END
*D_NET *9161 0.00136488
*CONN
*I *9162:Y O *D _3094
*I *9163:A I *L 0
*CAP
1 9161_1 0.00136488
*RES
1 *9162:Y 9161_1 14.3267
2 9161_1 *9163:A 0
*END
*D_NET *9164 0.0003072
*CONN
*I *9165:Y O *D _3095
*I *9166:C I *L 0
*CAP
1 9164_1 0.0003072
*RES
1 *9165:Y 9164_1 2.8
2 9164_1 *9166:C 0
*END
*D_NET *9167 8.64e-05
*CONN
*I *9168:Y O *D _3097
*I *9169:B I *L 0
*CAP
1 9167_1 8.64e-05
*RES
1 *9168:Y 9167_1 0.56
2 9167_1 *9169:B 0
*END
*D_NET *9170 0.00013872
*CONN
*I *9171:Y O *D _3098
*I *9172:A I *L 0
*CAP
1 9170_1 0.00013872
*RES
1 *9171:Y 9170_1 1.96
2 9170_1 *9172:A 0
*END
*D_NET *9173 0.00066048
*CONN
*I *9174:Y O *D _3099
*I *9175:C I *L 0
*CAP
1 9173_1 0.00066048
*RES
1 *9174:Y 9173_1 12.5067
2 9173_1 *9175:C 0
*END
*D_NET *9176 0.00012768
*CONN
*I *9177:Y O *D _3100
*I *9178:D I *L 0
*CAP
1 9176_1 0.00012768
*RES
1 *9177:Y 9176_1 3.54667
2 9176_1 *9178:D 0
*END
*D_NET *9179 5.76e-05
*CONN
*I *9180:Y O *D _3101
*I *9181:A I *L 0
*CAP
1 9179_1 5.76e-05
*RES
1 *9180:Y 9179_1 0.373333
2 9179_1 *9181:A 0
*END
*D_NET *9182 8.64e-05
*CONN
*I *9183:Q O *D _4060
*I *9184:A I *L 0
*CAP
1 9182_1 8.64e-05
*RES
1 *9183:Q 9182_1 0.56
2 9182_1 *9184:A 0
*END
*D_NET *9185 0.00105744
*CONN
*I *9186:Y O *D _3104
*I *9187:C I *L 0
*CAP
1 9185_1 0.00105744
*RES
1 *9186:Y 9185_1 26.04
2 9185_1 *9187:C 0
*END
*D_NET *9188 8.64e-05
*CONN
*I *9189:Y O *D _3106
*I *9190:B I *L 0
*CAP
1 9188_1 8.64e-05
*RES
1 *9189:Y 9188_1 0.56
2 9188_1 *9190:B 0
*END
*D_NET *9191 0.00010824
*CONN
*I *9192:Y O *D _3107
*I *9193:A I *L 0
*CAP
1 9191_1 0.00010824
*RES
1 *9192:Y 9191_1 2.00667
2 9191_1 *9193:A 0
*END
*D_NET *9194 0.00029496
*CONN
*I *9195:Y O *D _3108
*I *9196:C I *L 0
*CAP
1 9194_1 0.00029496
*RES
1 *9195:Y 9194_1 3.96667
2 9194_1 *9196:C 0
*END
*D_NET *9197 0.00041712
*CONN
*I *9198:Y O *D _3109
*I *9199:D I *L 0
*CAP
1 9197_1 0.00041712
*RES
1 *9198:Y 9197_1 5.69333
2 9197_1 *9199:D 0
*END
*D_NET *9200 0.0002016
*CONN
*I *9201:Q O *D _4061
*I *9202:A I *L 0
*CAP
1 9200_1 0.0002016
*RES
1 *9201:Q 9200_1 1.30667
2 9200_1 *9202:A 0
*END
*D_NET *9203 0.00043248
*CONN
*I *9204:Y O *D _3112
*I *9205:C I *L 0
*CAP
1 9203_1 0.00043248
*RES
1 *9204:Y 9203_1 4.94667
2 9203_1 *9205:C 0
*END
*D_NET *9206 8.64e-05
*CONN
*I *9207:Y O *D _3114
*I *9208:B I *L 0
*CAP
1 9206_1 8.64e-05
*RES
1 *9207:Y 9206_1 0.56
2 9206_1 *9208:B 0
*END
*D_NET *9209 8.784e-05
*CONN
*I *9210:Y O *D _3115
*I *9211:A I *L 0
*CAP
1 9209_1 8.784e-05
*RES
1 *9210:Y 9209_1 1.77333
2 9209_1 *9211:A 0
*END
*D_NET *9212 0.0001584
*CONN
*I *9213:Y O *D _3116
*I *9214:C I *L 0
*CAP
1 9212_1 0.0001584
*RES
1 *9213:Y 9212_1 1.02667
2 9212_1 *9214:C 0
*END
*D_NET *9215 0.0002292
*CONN
*I *9216:Y O *D _3117
*I *9217:D I *L 0
*CAP
1 9215_1 0.0002292
*RES
1 *9216:Y 9215_1 5.36667
2 9215_1 *9217:D 0
*END
*D_NET *9218 0.00022416
*CONN
*I *9219:Y O *D _3118
*I *9220:A I *L 0
*CAP
1 9218_1 0.00022416
*RES
1 *9219:Y 9218_1 2.89333
2 9218_1 *9220:A 0
*END
*D_NET *9221 8.64e-05
*CONN
*I *9222:Q O *D _4062
*I *9223:A I *L 0
*CAP
1 9221_1 8.64e-05
*RES
1 *9222:Q 9221_1 0.56
2 9221_1 *9223:A 0
*END
*D_NET *9224 0.00127224
*CONN
*I *9225:Y O *D _3121
*I *9226:C I *L 0
*CAP
1 9224_1 0.00127224
*RES
1 *9225:Y 9224_1 15.94
2 9224_1 *9226:C 0
*END
*D_NET *9227 0.00027648
*CONN
*I *9228:Y O *D _3123
*I *9229:B I *L 0
*CAP
1 9227_1 0.00027648
*RES
1 *9228:Y 9227_1 4.48
2 9227_1 *9229:B 0
*END
*D_NET *9230 0.000156
*CONN
*I *9231:Y O *D _3124
*I *9232:A I *L 0
*CAP
1 9230_1 0.000156
*RES
1 *9231:Y 9230_1 2.33333
2 9230_1 *9232:A 0
*END
*D_NET *9233 0.0001584
*CONN
*I *9234:Y O *D _3125
*I *9235:C I *L 0
*CAP
1 9233_1 0.0001584
*RES
1 *9234:Y 9233_1 1.02667
2 9233_1 *9235:C 0
*END
*D_NET *9236 0.00025008
*CONN
*I *9237:Y O *D _3126
*I *9238:D I *L 0
*CAP
1 9236_1 0.00025008
*RES
1 *9237:Y 9236_1 4.94667
2 9236_1 *9238:D 0
*END
*D_NET *9239 8.64e-05
*CONN
*I *9240:Y O *D _3127
*I *9241:A I *L 0
*CAP
1 9239_1 8.64e-05
*RES
1 *9240:Y 9239_1 0.56
2 9239_1 *9241:A 0
*END
*D_NET *9242 8.64e-05
*CONN
*I *9243:Q O *D _4063
*I *9244:A I *L 0
*CAP
1 9242_1 8.64e-05
*RES
1 *9243:Q 9242_1 0.56
2 9242_1 *9244:A 0
*END
*D_NET *9245 0.0002352
*CONN
*I *9246:Y O *D _3130
*I *9247:C I *L 0
*CAP
1 9245_1 0.0002352
*RES
1 *9246:Y 9245_1 5.13333
2 9245_1 *9247:C 0
*END
*D_NET *9248 8.64e-05
*CONN
*I *9249:Y O *D _3132
*I *9250:B I *L 0
*CAP
1 9248_1 8.64e-05
*RES
1 *9249:Y 9248_1 0.56
2 9248_1 *9250:B 0
*END
*D_NET *9251 4.704e-05
*CONN
*I *9252:Y O *D _3133
*I *9253:A I *L 0
*CAP
1 9251_1 4.704e-05
*RES
1 *9252:Y 9251_1 1.30667
2 9251_1 *9253:A 0
*END
*D_NET *9254 0.0002976
*CONN
*I *9255:Y O *D _3134
*I *9256:C I *L 0
*CAP
1 9254_1 0.0002976
*RES
1 *9255:Y 9254_1 5.6
2 9254_1 *9256:C 0
*END
*D_NET *9257 0.0002292
*CONN
*I *9258:Y O *D _3135
*I *9259:D I *L 0
*CAP
1 9257_1 0.0002292
*RES
1 *9258:Y 9257_1 2.56667
2 9257_1 *9259:D 0
*END
*D_NET *9260 5.76e-05
*CONN
*I *9261:Y O *D _3136
*I *9262:A I *L 0
*CAP
1 9260_1 5.76e-05
*RES
1 *9261:Y 9260_1 0.373333
2 9260_1 *9262:A 0
*END
*D_NET *9263 8.64e-05
*CONN
*I *9264:Q O *D _4064
*I *9265:A I *L 0
*CAP
1 9263_1 8.64e-05
*RES
1 *9264:Q 9263_1 0.56
2 9263_1 *9265:A 0
*END
*D_NET *9266 0.000264
*CONN
*I *9267:Y O *D _3139
*I *9268:C I *L 0
*CAP
1 9266_1 0.000264
*RES
1 *9267:Y 9266_1 4.66667
2 9266_1 *9268:C 0
*END
*D_NET *9269 8.64e-05
*CONN
*I *9270:Y O *D _3141
*I *9271:B I *L 0
*CAP
1 9269_1 8.64e-05
*RES
1 *9270:Y 9269_1 0.56
2 9269_1 *9271:B 0
*END
*D_NET *9272 4.704e-05
*CONN
*I *9273:Y O *D _3142
*I *9274:A I *L 0
*CAP
1 9272_1 4.704e-05
*RES
1 *9273:Y 9272_1 1.30667
2 9272_1 *9274:A 0
*END
*D_NET *9275 0.0001584
*CONN
*I *9276:Y O *D _3143
*I *9277:C I *L 0
*CAP
1 9275_1 0.0001584
*RES
1 *9276:Y 9275_1 1.02667
2 9275_1 *9277:C 0
*END
*D_NET *9278 9.408e-05
*CONN
*I *9279:Y O *D _3144
*I *9280:D I *L 0
*CAP
1 9278_1 9.408e-05
*RES
1 *9279:Y 9278_1 2.61333
2 9278_1 *9280:D 0
*END
*D_NET *9281 0.00025296
*CONN
*I *9282:Y O *D _3145
*I *9283:A I *L 0
*CAP
1 9281_1 0.00025296
*RES
1 *9282:Y 9281_1 5.13333
2 9281_1 *9283:A 0
*END
*D_NET *9284 0.0002016
*CONN
*I *9285:Q O *D _4065
*I *9286:A I *L 0
*CAP
1 9284_1 0.0002016
*RES
1 *9285:Q 9284_1 1.30667
2 9284_1 *9286:A 0
*END
*D_NET *9287 0.00042768
*CONN
*I *9288:Y O *D _3148
*I *9289:C I *L 0
*CAP
1 9287_1 0.00042768
*RES
1 *9288:Y 9287_1 5.88
2 9287_1 *9289:C 0
*END
*D_NET *9290 0.0001152
*CONN
*I *9291:Y O *D _3150
*I *9292:B I *L 0
*CAP
1 9290_1 0.0001152
*RES
1 *9291:Y 9290_1 1.86667
2 9290_1 *9292:B 0
*END
*D_NET *9293 0.00018288
*CONN
*I *9294:Y O *D _3151
*I *9295:A I *L 0
*CAP
1 9293_1 0.00018288
*RES
1 *9294:Y 9293_1 3.08
2 9293_1 *9295:A 0
*END
*D_NET *9296 0.00032808
*CONN
*I *9297:Y O *D _3152
*I *9298:C I *L 0
*CAP
1 9296_1 0.00032808
*RES
1 *9297:Y 9296_1 3.11333
2 9296_1 *9298:C 0
*END
*D_NET *9299 8.064e-05
*CONN
*I *9300:Y O *D _3153
*I *9301:D I *L 0
*CAP
1 9299_1 8.064e-05
*RES
1 *9300:Y 9299_1 2.24
2 9299_1 *9301:D 0
*END
*D_NET *9302 5.76e-05
*CONN
*I *9303:Y O *D _3154
*I *9304:A I *L 0
*CAP
1 9302_1 5.76e-05
*RES
1 *9303:Y 9302_1 0.373333
2 9302_1 *9304:A 0
*END
*D_NET *9305 2.688e-05
*CONN
*I *9306:Q O *D _4066
*I *9307:A I *L 0
*CAP
1 9305_1 2.688e-05
*RES
1 *9306:Q 9305_1 0.746667
2 9305_1 *9307:A 0
*END
*D_NET *9308 0.00033864
*CONN
*I *9309:Y O *D _3157
*I *9310:C I *L 0
*CAP
1 9308_1 0.00033864
*RES
1 *9309:Y 9308_1 5.74
2 9308_1 *9310:C 0
*END
*D_NET *9311 8.64e-05
*CONN
*I *9312:Y O *D _3159
*I *9313:B I *L 0
*CAP
1 9311_1 8.64e-05
*RES
1 *9312:Y 9311_1 0.56
2 9311_1 *9313:B 0
*END
*D_NET *9314 9.792e-05
*CONN
*I *9315:Y O *D _3160
*I *9316:A I *L 0
*CAP
1 9314_1 9.792e-05
*RES
1 *9315:Y 9314_1 1.49333
2 9314_1 *9316:A 0
*END
*D_NET *9317 0.0001632
*CONN
*I *9318:Y O *D _3161
*I *9319:C I *L 0
*CAP
1 9317_1 0.0001632
*RES
1 *9318:Y 9317_1 1.86667
2 9317_1 *9319:C 0
*END
*D_NET *9320 0.00034512
*CONN
*I *9321:Y O *D _3162
*I *9322:D I *L 0
*CAP
1 9320_1 0.00034512
*RES
1 *9321:Y 9320_1 6.25333
2 9320_1 *9322:D 0
*END
*D_NET *9323 5.76e-05
*CONN
*I *9324:Y O *D _3163
*I *9325:A I *L 0
*CAP
1 9323_1 5.76e-05
*RES
1 *9324:Y 9323_1 0.373333
2 9323_1 *9325:A 0
*END
*D_NET *9326 0.00020208
*CONN
*I *9327:Q O *D _4067
*I *9328:A I *L 0
*CAP
1 9326_1 0.00020208
*RES
1 *9327:Q 9326_1 3.08
2 9326_1 *9328:A 0
*END
*D_NET *9329 0.00031632
*CONN
*I *9330:Y O *D _3166
*I *9331:C I *L 0
*CAP
1 9329_1 0.00031632
*RES
1 *9330:Y 9329_1 8.12
2 9329_1 *9331:C 0
*END
*D_NET *9332 8.64e-05
*CONN
*I *9333:Y O *D _3168
*I *9334:B I *L 0
*CAP
1 9332_1 8.64e-05
*RES
1 *9333:Y 9332_1 0.56
2 9332_1 *9334:B 0
*END
*D_NET *9335 0.00012816
*CONN
*I *9336:Y O *D _3169
*I *9337:A I *L 0
*CAP
1 9335_1 0.00012816
*RES
1 *9336:Y 9335_1 2.89333
2 9335_1 *9337:A 0
*END
*D_NET *9338 8.112e-05
*CONN
*I *9339:Y O *D _3170
*I *9340:C I *L 0
*CAP
1 9338_1 8.112e-05
*RES
1 *9339:Y 9338_1 1.58667
2 9338_1 *9340:C 0
*END
*D_NET *9341 0.00031128
*CONN
*I *9342:Y O *D _3171
*I *9343:D I *L 0
*CAP
1 9341_1 0.00031128
*RES
1 *9342:Y 9341_1 5.64667
2 9341_1 *9343:D 0
*END
*D_NET *9344 5.76e-05
*CONN
*I *9345:Y O *D _3172
*I *9346:A I *L 0
*CAP
1 9344_1 5.76e-05
*RES
1 *9345:Y 9344_1 0.373333
2 9344_1 *9346:A 0
*END
*D_NET *9347 9.456e-05
*CONN
*I *9348:Q O *D _4068
*I *9349:A I *L 0
*CAP
1 9347_1 9.456e-05
*RES
1 *9348:Q 9347_1 1.96
2 9347_1 *9349:A 0
*END
*D_NET *9350 0.0006756
*CONN
*I *9351:Y O *D _3175
*I *9352:C I *L 0
*CAP
1 9350_1 0.0006756
*RES
1 *9351:Y 9350_1 6.03333
2 9350_1 *9352:C 0
*END
*D_NET *9353 8.64e-05
*CONN
*I *9354:Y O *D _3177
*I *9355:B I *L 0
*CAP
1 9353_1 8.64e-05
*RES
1 *9354:Y 9353_1 0.56
2 9353_1 *9355:B 0
*END
*D_NET *9356 4.704e-05
*CONN
*I *9357:Y O *D _3178
*I *9358:A I *L 0
*CAP
1 9356_1 4.704e-05
*RES
1 *9357:Y 9356_1 1.30667
2 9356_1 *9358:A 0
*END
*D_NET *9359 0.0001584
*CONN
*I *9360:Y O *D _3179
*I *9361:C I *L 0
*CAP
1 9359_1 0.0001584
*RES
1 *9360:Y 9359_1 1.02667
2 9359_1 *9361:C 0
*END
*D_NET *9362 0.00016944
*CONN
*I *9363:Y O *D _3180
*I *9364:D I *L 0
*CAP
1 9362_1 0.00016944
*RES
1 *9363:Y 9362_1 2.70667
2 9362_1 *9364:D 0
*END
*D_NET *9365 5.76e-05
*CONN
*I *9366:Y O *D _3181
*I *9367:A I *L 0
*CAP
1 9365_1 5.76e-05
*RES
1 *9366:Y 9365_1 0.373333
2 9365_1 *9367:A 0
*END
*D_NET *9368 2.688e-05
*CONN
*I *9369:Q O *D _4069
*I *9370:A I *L 0
*CAP
1 9368_1 2.688e-05
*RES
1 *9369:Q 9368_1 0.746667
2 9368_1 *9370:A 0
*END
*D_NET *9371 0.00075096
*CONN
*I *9372:Y O *D _3184
*I *9373:C I *L 0
*CAP
1 9371_1 0.00075096
*RES
1 *9372:Y 9371_1 18.5267
2 9371_1 *9373:C 0
*END
*D_NET *9374 0.0002016
*CONN
*I *9375:Y O *D _3186
*I *9376:B I *L 0
*CAP
1 9374_1 0.0002016
*RES
1 *9375:Y 9374_1 1.30667
2 9374_1 *9376:B 0
*END
*D_NET *9377 0.0001656
*CONN
*I *9378:Y O *D _3187
*I *9379:A I *L 0
*CAP
1 9377_1 0.0001656
*RES
1 *9378:Y 9377_1 2.70667
2 9377_1 *9379:A 0
*END
*D_NET *9380 0.00018096
*CONN
*I *9381:Y O *D _3188
*I *9382:C I *L 0
*CAP
1 9380_1 0.00018096
*RES
1 *9381:Y 9380_1 2.52
2 9380_1 *9382:C 0
*END
*D_NET *9383 0.00018216
*CONN
*I *9384:Y O *D _3189
*I *9385:D I *L 0
*CAP
1 9383_1 0.00018216
*RES
1 *9384:Y 9383_1 4.06
2 9383_1 *9385:D 0
*END
*D_NET *9386 5.76e-05
*CONN
*I *9387:Y O *D _3190
*I *9388:A I *L 0
*CAP
1 9386_1 5.76e-05
*RES
1 *9387:Y 9386_1 0.373333
2 9386_1 *9388:A 0
*END
*D_NET *9389 8.64e-05
*CONN
*I *9390:Q O *D _4070
*I *9391:A I *L 0
*CAP
1 9389_1 8.64e-05
*RES
1 *9390:Q 9389_1 0.56
2 9389_1 *9391:A 0
*END
*D_NET *9392 0.00014112
*CONN
*I *9393:Y O *D _3193
*I *9394:C I *L 0
*CAP
1 9392_1 0.00014112
*RES
1 *9393:Y 9392_1 3.92
2 9392_1 *9394:C 0
*END
*D_NET *9395 8.64e-05
*CONN
*I *9396:Y O *D _3195
*I *9397:B I *L 0
*CAP
1 9395_1 8.64e-05
*RES
1 *9396:Y 9395_1 0.56
2 9395_1 *9397:B 0
*END
*D_NET *9398 0.00016272
*CONN
*I *9399:Y O *D _3196
*I *9400:A I *L 0
*CAP
1 9398_1 0.00016272
*RES
1 *9399:Y 9398_1 2.52
2 9398_1 *9400:A 0
*END
*D_NET *9401 0.00083448
*CONN
*I *9402:Y O *D _3197
*I *9403:C I *L 0
*CAP
1 9401_1 0.00083448
*RES
1 *9402:Y 9401_1 12.18
2 9401_1 *9403:C 0
*END
*D_NET *9404 0.00031824
*CONN
*I *9405:Y O *D _3198
*I *9406:D I *L 0
*CAP
1 9404_1 0.00031824
*RES
1 *9405:Y 9404_1 3.64
2 9404_1 *9406:D 0
*END
*D_NET *9407 5.76e-05
*CONN
*I *9408:Y O *D _3199
*I *9409:A I *L 0
*CAP
1 9407_1 5.76e-05
*RES
1 *9408:Y 9407_1 0.373333
2 9407_1 *9409:A 0
*END
*D_NET *9410 8.64e-05
*CONN
*I *9411:Q O *D _4071
*I *9412:A I *L 0
*CAP
1 9410_1 8.64e-05
*RES
1 *9411:Q 9410_1 0.56
2 9410_1 *9412:A 0
*END
*D_NET *9413 0.00019584
*CONN
*I *9414:Y O *D _3202
*I *9415:C I *L 0
*CAP
1 9413_1 0.00019584
*RES
1 *9414:Y 9413_1 2.24
2 9413_1 *9415:C 0
*END
*D_NET *9416 0.00026184
*CONN
*I *9417:Y O *D _3204
*I *9418:B I *L 0
*CAP
1 9416_1 0.00026184
*RES
1 *9417:Y 9416_1 2.56667
2 9416_1 *9418:B 0
*END
*D_NET *9419 8.64e-05
*CONN
*I *9420:Y O *D _3205
*I *9421:A I *L 0
*CAP
1 9419_1 8.64e-05
*RES
1 *9420:Y 9419_1 0.56
2 9419_1 *9421:A 0
*END
*D_NET *9422 8.112e-05
*CONN
*I *9423:Y O *D _3206
*I *9424:C I *L 0
*CAP
1 9422_1 8.112e-05
*RES
1 *9423:Y 9422_1 1.58667
2 9422_1 *9424:C 0
*END
*D_NET *9425 0.00023664
*CONN
*I *9426:Y O *D _3207
*I *9427:D I *L 0
*CAP
1 9425_1 0.00023664
*RES
1 *9426:Y 9425_1 2.70667
2 9425_1 *9427:D 0
*END
*D_NET *9428 0.00018
*CONN
*I *9429:Y O *D _3208
*I *9430:A I *L 0
*CAP
1 9428_1 0.00018
*RES
1 *9429:Y 9428_1 1.77333
2 9428_1 *9430:A 0
*END
*D_NET *9431 8.64e-05
*CONN
*I *9432:Q O *D _4072
*I *9433:A I *L 0
*CAP
1 9431_1 8.64e-05
*RES
1 *9432:Q 9431_1 0.56
2 9431_1 *9433:A 0
*END
*D_NET *9434 0.00093
*CONN
*I *9435:Y O *D _3211
*I *9436:C I *L 0
*CAP
1 9434_1 0.00093
*RES
1 *9435:Y 9434_1 12.8333
2 9434_1 *9436:C 0
*END
*D_NET *9437 4.704e-05
*CONN
*I *9438:Y O *D _3213
*I *9439:B I *L 0
*CAP
1 9437_1 4.704e-05
*RES
1 *9438:Y 9437_1 1.30667
2 9437_1 *9439:B 0
*END
*D_NET *9440 0.0001656
*CONN
*I *9441:Y O *D _3214
*I *9442:A I *L 0
*CAP
1 9440_1 0.0001656
*RES
1 *9441:Y 9440_1 2.70667
2 9440_1 *9442:A 0
*END
*D_NET *9443 0.00025728
*CONN
*I *9444:Y O *D _3215
*I *9445:C I *L 0
*CAP
1 9443_1 0.00025728
*RES
1 *9444:Y 9443_1 4.48
2 9443_1 *9445:C 0
*END
*D_NET *9446 0.00020328
*CONN
*I *9447:Y O *D _3216
*I *9448:D I *L 0
*CAP
1 9446_1 0.00020328
*RES
1 *9447:Y 9446_1 3.31333
2 9446_1 *9448:D 0
*END
*D_NET *9449 5.76e-05
*CONN
*I *9450:Y O *D _3217
*I *9451:A I *L 0
*CAP
1 9449_1 5.76e-05
*RES
1 *9450:Y 9449_1 0.373333
2 9449_1 *9451:A 0
*END
*D_NET *9452 0.00030504
*CONN
*I *9453:Q O *D _4073
*I *9454:A I *L 0
*CAP
1 9452_1 0.00030504
*RES
1 *9453:Q 9452_1 4.80667
2 9452_1 *9454:A 0
*END
*D_NET *9455 0.00046152
*CONN
*I *9456:Y O *D _3220
*I *9457:C I *L 0
*CAP
1 9455_1 0.00046152
*RES
1 *9456:Y 9455_1 6.48667
2 9455_1 *9457:C 0
*END
*D_NET *9458 0.0002304
*CONN
*I *9459:Y O *D _3222
*I *9460:B I *L 0
*CAP
1 9458_1 0.0002304
*RES
1 *9459:Y 9458_1 3.73333
2 9458_1 *9460:B 0
*END
*D_NET *9461 8.64e-05
*CONN
*I *9462:Y O *D _3223
*I *9463:A I *L 0
*CAP
1 9461_1 8.64e-05
*RES
1 *9462:Y 9461_1 0.56
2 9461_1 *9463:A 0
*END
*D_NET *9464 0.0001584
*CONN
*I *9465:Y O *D _3224
*I *9466:C I *L 0
*CAP
1 9464_1 0.0001584
*RES
1 *9465:Y 9464_1 1.02667
2 9464_1 *9466:C 0
*END
*D_NET *9467 0.0002232
*CONN
*I *9468:Y O *D _3225
*I *9469:D I *L 0
*CAP
1 9467_1 0.0002232
*RES
1 *9468:Y 9467_1 4.2
2 9467_1 *9469:D 0
*END
*D_NET *9470 5.76e-05
*CONN
*I *9471:Y O *D _3226
*I *9472:A I *L 0
*CAP
1 9470_1 5.76e-05
*RES
1 *9471:Y 9470_1 0.373333
2 9470_1 *9472:A 0
*END
*D_NET *9473 5.376e-05
*CONN
*I *9474:Q O *D _4074
*I *9475:A I *L 0
*CAP
1 9473_1 5.376e-05
*RES
1 *9474:Q 9473_1 1.49333
2 9473_1 *9475:A 0
*END
*D_NET *9476 0.0001584
*CONN
*I *9477:Y O *D _3229
*I *9478:C I *L 0
*CAP
1 9476_1 0.0001584
*RES
1 *9477:Y 9476_1 1.02667
2 9476_1 *9478:C 0
*END
*D_NET *9479 8.64e-05
*CONN
*I *9480:Y O *D _3231
*I *9481:B I *L 0
*CAP
1 9479_1 8.64e-05
*RES
1 *9480:Y 9479_1 0.56
2 9479_1 *9481:B 0
*END
*D_NET *9482 0.00010824
*CONN
*I *9483:Y O *D _3232
*I *9484:A I *L 0
*CAP
1 9482_1 0.00010824
*RES
1 *9483:Y 9482_1 2.00667
2 9482_1 *9484:A 0
*END
*D_NET *9485 0.0001968
*CONN
*I *9486:Y O *D _3233
*I *9487:C I *L 0
*CAP
1 9485_1 0.0001968
*RES
1 *9486:Y 9485_1 2.8
2 9485_1 *9487:C 0
*END
*D_NET *9488 9.408e-05
*CONN
*I *9489:Y O *D _3234
*I *9490:D I *L 0
*CAP
1 9488_1 9.408e-05
*RES
1 *9489:Y 9488_1 2.61333
2 9488_1 *9490:D 0
*END
*D_NET *9491 5.76e-05
*CONN
*I *9492:Y O *D _3235
*I *9493:A I *L 0
*CAP
1 9491_1 5.76e-05
*RES
1 *9492:Y 9491_1 0.373333
2 9491_1 *9493:A 0
*END
*D_NET *9494 2.688e-05
*CONN
*I *9495:Q O *D _4075
*I *9496:A I *L 0
*CAP
1 9494_1 2.688e-05
*RES
1 *9495:Q 9494_1 0.746667
2 9494_1 *9496:A 0
*END
*D_NET *9497 0.00067536
*CONN
*I *9498:Y O *D _3238
*I *9499:C I *L 0
*CAP
1 9497_1 0.00067536
*RES
1 *9498:Y 9497_1 7.42667
2 9497_1 *9499:C 0
*END
*D_NET *9500 0.0001776
*CONN
*I *9501:Y O *D _3240
*I *9502:B I *L 0
*CAP
1 9500_1 0.0001776
*RES
1 *9501:Y 9500_1 1.86667
2 9500_1 *9502:B 0
*END
*D_NET *9503 0.00012816
*CONN
*I *9504:Y O *D _3241
*I *9505:A I *L 0
*CAP
1 9503_1 0.00012816
*RES
1 *9504:Y 9503_1 2.89333
2 9503_1 *9505:A 0
*END
*D_NET *9506 0.00083328
*CONN
*I *9507:Y O *D _3242
*I *9508:C I *L 0
*CAP
1 9506_1 0.00083328
*RES
1 *9507:Y 9506_1 10.64
2 9506_1 *9508:C 0
*END
*D_NET *9509 0.00015168
*CONN
*I *9510:Y O *D _3243
*I *9511:D I *L 0
*CAP
1 9509_1 0.00015168
*RES
1 *9510:Y 9509_1 2.98667
2 9509_1 *9511:D 0
*END
*D_NET *9512 0.0001728
*CONN
*I *9513:Y O *D _3244
*I *9514:A I *L 0
*CAP
1 9512_1 0.0001728
*RES
1 *9513:Y 9512_1 1.12
2 9512_1 *9514:A 0
*END
*D_NET *9515 8.64e-05
*CONN
*I *9516:Q O *D _4076
*I *9517:A I *L 0
*CAP
1 9515_1 8.64e-05
*RES
1 *9516:Q 9515_1 0.56
2 9515_1 *9517:A 0
*END
*D_NET *9518 0.00060288
*CONN
*I *9519:Y O *D _3247
*I *9520:C I *L 0
*CAP
1 9518_1 0.00060288
*RES
1 *9519:Y 9518_1 9.70667
2 9518_1 *9520:C 0
*END
*D_NET *9521 0.00030816
*CONN
*I *9522:Y O *D _3249
*I *9523:B I *L 0
*CAP
1 9521_1 0.00030816
*RES
1 *9522:Y 9521_1 3.54667
2 9521_1 *9523:B 0
*END
*D_NET *9524 0.0002016
*CONN
*I *9525:Y O *D _3250
*I *9526:A I *L 0
*CAP
1 9524_1 0.0002016
*RES
1 *9525:Y 9524_1 1.30667
2 9524_1 *9526:A 0
*END
*D_NET *9527 0.0002244
*CONN
*I *9528:Y O *D _3251
*I *9529:C I *L 0
*CAP
1 9527_1 0.0002244
*RES
1 *9528:Y 9527_1 2.56667
2 9527_1 *9529:C 0
*END
*D_NET *9530 0.000156
*CONN
*I *9531:Y O *D _3252
*I *9532:D I *L 0
*CAP
1 9530_1 0.000156
*RES
1 *9531:Y 9530_1 2.33333
2 9530_1 *9532:D 0
*END
*D_NET *9533 5.76e-05
*CONN
*I *9534:Y O *D _3253
*I *9535:A I *L 0
*CAP
1 9533_1 5.76e-05
*RES
1 *9534:Y 9533_1 0.373333
2 9533_1 *9535:A 0
*END
*D_NET *9536 0.0002016
*CONN
*I *9537:Q O *D _4077
*I *9538:A I *L 0
*CAP
1 9536_1 0.0002016
*RES
1 *9537:Q 9536_1 1.30667
2 9536_1 *9538:A 0
*END
*D_NET *9539 0.0001584
*CONN
*I *9540:Y O *D _3256
*I *9541:C I *L 0
*CAP
1 9539_1 0.0001584
*RES
1 *9540:Y 9539_1 1.02667
2 9539_1 *9541:C 0
*END
*D_NET *9542 6.048e-05
*CONN
*I *9543:Y O *D _3258
*I *9544:B I *L 0
*CAP
1 9542_1 6.048e-05
*RES
1 *9543:Y 9542_1 1.68
2 9542_1 *9544:B 0
*END
*D_NET *9545 8.64e-05
*CONN
*I *9546:Y O *D _3259
*I *9547:A I *L 0
*CAP
1 9545_1 8.64e-05
*RES
1 *9546:Y 9545_1 0.56
2 9545_1 *9547:A 0
*END
*D_NET *9548 0.00030168
*CONN
*I *9549:Y O *D _3260
*I *9550:C I *L 0
*CAP
1 9548_1 0.00030168
*RES
1 *9549:Y 9548_1 4.15333
2 9548_1 *9550:C 0
*END
*D_NET *9551 0.0001008
*CONN
*I *9552:Y O *D _3261
*I *9553:D I *L 0
*CAP
1 9551_1 0.0001008
*RES
1 *9552:Y 9551_1 2.8
2 9551_1 *9553:D 0
*END
*D_NET *9554 0.00017856
*CONN
*I *9555:Y O *D _3262
*I *9556:A I *L 0
*CAP
1 9554_1 0.00017856
*RES
1 *9555:Y 9554_1 1.4
2 9554_1 *9556:A 0
*END
*D_NET *9557 8.64e-05
*CONN
*I *9558:Q O *D _4078
*I *9559:A I *L 0
*CAP
1 9557_1 8.64e-05
*RES
1 *9558:Q 9557_1 0.56
2 9557_1 *9559:A 0
*END
*D_NET *9560 0.00052344
*CONN
*I *9561:Y O *D _3265
*I *9562:C I *L 0
*CAP
1 9560_1 0.00052344
*RES
1 *9561:Y 9560_1 5.27333
2 9560_1 *9562:C 0
*END
*D_NET *9563 0.00029424
*CONN
*I *9564:Y O *D _3267
*I *9565:B I *L 0
*CAP
1 9563_1 0.00029424
*RES
1 *9564:Y 9563_1 3.08
2 9563_1 *9565:B 0
*END
*D_NET *9566 0.00020328
*CONN
*I *9567:Y O *D _3268
*I *9568:A I *L 0
*CAP
1 9566_1 0.00020328
*RES
1 *9567:Y 9566_1 3.31333
2 9566_1 *9568:A 0
*END
*D_NET *9569 0.00037824
*CONN
*I *9570:Y O *D _3269
*I *9571:C I *L 0
*CAP
1 9569_1 0.00037824
*RES
1 *9570:Y 9569_1 4.66667
2 9569_1 *9571:C 0
*END
*D_NET *9572 0.00021624
*CONN
*I *9573:Y O *D _3270
*I *9574:D I *L 0
*CAP
1 9572_1 0.00021624
*RES
1 *9573:Y 9572_1 2.47333
2 9572_1 *9574:D 0
*END
*D_NET *9575 3.36e-05
*CONN
*I *9576:Y O *D _3271
*I *9577:A I *L 0
*CAP
1 9575_1 3.36e-05
*RES
1 *9576:Y 9575_1 0.933333
2 9575_1 *9577:A 0
*END
*D_NET *9578 8.64e-05
*CONN
*I *9579:Q O *D _4079
*I *9580:A I *L 0
*CAP
1 9578_1 8.64e-05
*RES
1 *9579:Q 9578_1 0.56
2 9578_1 *9580:A 0
*END
*D_NET *9581 0.00018336
*CONN
*I *9582:Y O *D _3274
*I *9583:C I *L 0
*CAP
1 9581_1 0.00018336
*RES
1 *9582:Y 9581_1 2.42667
2 9581_1 *9583:C 0
*END
*D_NET *9584 0.00018984
*CONN
*I *9585:Y O *D _3276
*I *9586:B I *L 0
*CAP
1 9584_1 0.00018984
*RES
1 *9585:Y 9584_1 2.94
2 9584_1 *9586:B 0
*END
*D_NET *9587 0.00019632
*CONN
*I *9588:Y O *D _3277
*I *9589:A I *L 0
*CAP
1 9587_1 0.00019632
*RES
1 *9588:Y 9587_1 3.45333
2 9587_1 *9589:A 0
*END
*D_NET *9590 0.0001584
*CONN
*I *9591:Y O *D _3278
*I *9592:C I *L 0
*CAP
1 9590_1 0.0001584
*RES
1 *9591:Y 9590_1 1.02667
2 9590_1 *9592:C 0
*END
*D_NET *9593 0.0001224
*CONN
*I *9594:Y O *D _3279
*I *9595:D I *L 0
*CAP
1 9593_1 0.0001224
*RES
1 *9594:Y 9593_1 1.4
2 9593_1 *9595:D 0
*END
*D_NET *9596 0.00213024
*CONN
*I *9597:Y O *D _3280
*I *9598:A I *L 0
*CAP
1 9596_1 0.00213024
*RES
1 *9597:Y 9596_1 27.44
2 9596_1 *9598:A 0
*END
*D_NET *9599 0.00013464
*CONN
*I *9600:Q O *D _4080
*I *9601:A I *L 0
*CAP
1 9599_1 0.00013464
*RES
1 *9600:Q 9599_1 1.54
2 9599_1 *9601:A 0
*END
*D_NET *9602 2.016e-05
*CONN
*I *9603:Y O *D _3283
*I *9604:C I *L 0
*CAP
1 9602_1 2.016e-05
*RES
1 *9603:Y 9602_1 0.56
2 9602_1 *9604:C 0
*END
*D_NET *9605 0.00027744
*CONN
*I *9606:Y O *D _3285
*I *9607:B I *L 0
*CAP
1 9605_1 0.00027744
*RES
1 *9606:Y 9605_1 5.04
2 9605_1 *9607:B 0
*END
*D_NET *9608 0.00021312
*CONN
*I *9609:Y O *D _3286
*I *9610:A I *L 0
*CAP
1 9608_1 0.00021312
*RES
1 *9609:Y 9608_1 3.92
2 9608_1 *9610:A 0
*END
*D_NET *9611 0.0001584
*CONN
*I *9612:Y O *D _3287
*I *9613:C I *L 0
*CAP
1 9611_1 0.0001584
*RES
1 *9612:Y 9611_1 1.02667
2 9611_1 *9613:C 0
*END
*D_NET *9614 0.00041328
*CONN
*I *9615:Y O *D _3288
*I *9616:D I *L 0
*CAP
1 9614_1 0.00041328
*RES
1 *9615:Y 9614_1 6.81333
2 9614_1 *9616:D 0
*END
*D_NET *9617 5.76e-05
*CONN
*I *9618:Y O *D _3289
*I *9619:A I *L 0
*CAP
1 9617_1 5.76e-05
*RES
1 *9618:Y 9617_1 0.373333
2 9617_1 *9619:A 0
*END
*D_NET *9620 0.000504
*CONN
*I *9621:Q O *D _4081
*I *9622:A I *L 0
*CAP
1 9620_1 0.000504
*RES
1 *9621:Q 9620_1 5.6
2 9620_1 *9622:A 0
*END
*D_NET *9623 0.00156048
*CONN
*I *9624:Y O *D _3292
*I *9625:C I *L 0
*CAP
1 9623_1 0.00156048
*RES
1 *9624:Y 9623_1 20.08
2 9623_1 *9625:C 0
*END
*D_NET *9626 0.00015552
*CONN
*I *9627:Y O *D _3294
*I *9628:B I *L 0
*CAP
1 9626_1 0.00015552
*RES
1 *9627:Y 9626_1 2.98667
2 9626_1 *9628:B 0
*END
*D_NET *9629 7.44e-05
*CONN
*I *9630:Y O *D _3295
*I *9631:A I *L 0
*CAP
1 9629_1 7.44e-05
*RES
1 *9630:Y 9629_1 1.4
2 9629_1 *9631:A 0
*END
*D_NET *9632 0.00048744
*CONN
*I *9633:Y O *D _3296
*I *9634:C I *L 0
*CAP
1 9632_1 0.00048744
*RES
1 *9633:Y 9632_1 5.74
2 9632_1 *9634:C 0
*END
*D_NET *9635 0.00101016
*CONN
*I *9636:Y O *D _3297
*I *9637:D I *L 0
*CAP
1 9635_1 0.00101016
*RES
1 *9636:Y 9635_1 13.86
2 9635_1 *9637:D 0
*END
*D_NET *9638 0.00024984
*CONN
*I *9639:Y O *D _3298
*I *9640:A I *L 0
*CAP
1 9638_1 0.00024984
*RES
1 *9639:Y 9638_1 3.40667
2 9638_1 *9640:A 0
*END
*D_NET *9641 8.64e-05
*CONN
*I *9642:Q O *D _4082
*I *9643:A I *L 0
*CAP
1 9641_1 8.64e-05
*RES
1 *9642:Q 9641_1 0.56
2 9641_1 *9643:A 0
*END
*D_NET *9644 0.0001584
*CONN
*I *9645:Y O *D _3301
*I *9646:C I *L 0
*CAP
1 9644_1 0.0001584
*RES
1 *9645:Y 9644_1 1.02667
2 9644_1 *9646:C 0
*END
*D_NET *9647 0.00015096
*CONN
*I *9648:Y O *D _3303
*I *9649:B I *L 0
*CAP
1 9647_1 0.00015096
*RES
1 *9648:Y 9647_1 1.92667
2 9647_1 *9649:B 0
*END
*D_NET *9650 0.00015504
*CONN
*I *9651:Y O *D _3304
*I *9652:A I *L 0
*CAP
1 9650_1 0.00015504
*RES
1 *9651:Y 9650_1 1.77333
2 9650_1 *9652:A 0
*END
*D_NET *9653 0.0001584
*CONN
*I *9654:Y O *D _3305
*I *9655:C I *L 0
*CAP
1 9653_1 0.0001584
*RES
1 *9654:Y 9653_1 1.02667
2 9653_1 *9655:C 0
*END
*D_NET *9656 0.00016224
*CONN
*I *9657:Y O *D _3306
*I *9658:D I *L 0
*CAP
1 9656_1 0.00016224
*RES
1 *9657:Y 9656_1 3.17333
2 9656_1 *9658:D 0
*END
*D_NET *9659 5.76e-05
*CONN
*I *9660:Y O *D _3307
*I *9661:A I *L 0
*CAP
1 9659_1 5.76e-05
*RES
1 *9660:Y 9659_1 0.373333
2 9659_1 *9661:A 0
*END
*D_NET *9662 2.688e-05
*CONN
*I *9663:Q O *D _4083
*I *9664:A I *L 0
*CAP
1 9662_1 2.688e-05
*RES
1 *9663:Q 9662_1 0.746667
2 9662_1 *9664:A 0
*END
*D_NET *9665 0.00015408
*CONN
*I *9666:Y O *D _3310
*I *9667:C I *L 0
*CAP
1 9665_1 0.00015408
*RES
1 *9666:Y 9665_1 1.77333
2 9665_1 *9667:C 0
*END
*D_NET *9668 8.64e-05
*CONN
*I *9669:Y O *D _3312
*I *9670:B I *L 0
*CAP
1 9668_1 8.64e-05
*RES
1 *9669:Y 9668_1 0.56
2 9668_1 *9670:B 0
*END
*D_NET *9671 8.784e-05
*CONN
*I *9672:Y O *D _3313
*I *9673:A I *L 0
*CAP
1 9671_1 8.784e-05
*RES
1 *9672:Y 9671_1 1.77333
2 9671_1 *9673:A 0
*END
*D_NET *9674 0.00054576
*CONN
*I *9675:Y O *D _3314
*I *9676:C I *L 0
*CAP
1 9674_1 0.00054576
*RES
1 *9675:Y 9674_1 4.76
2 9674_1 *9676:C 0
*END
*D_NET *9677 0.00018216
*CONN
*I *9678:Y O *D _3315
*I *9679:D I *L 0
*CAP
1 9677_1 0.00018216
*RES
1 *9678:Y 9677_1 4.06
2 9677_1 *9679:D 0
*END
*D_NET *9680 5.76e-05
*CONN
*I *9681:Y O *D _3316
*I *9682:A I *L 0
*CAP
1 9680_1 5.76e-05
*RES
1 *9681:Y 9680_1 0.373333
2 9680_1 *9682:A 0
*END
*D_NET *9683 8.784e-05
*CONN
*I *9684:Q O *D _4084
*I *9685:A I *L 0
*CAP
1 9683_1 8.784e-05
*RES
1 *9684:Q 9683_1 1.77333
2 9683_1 *9685:A 0
*END
*D_NET *9686 0.00068472
*CONN
*I *9687:Y O *D _3319
*I *9688:C I *L 0
*CAP
1 9686_1 0.00068472
*RES
1 *9687:Y 9686_1 8.82
2 9686_1 *9688:C 0
*END
*D_NET *9689 8.64e-05
*CONN
*I *9690:Y O *D _3321
*I *9691:B I *L 0
*CAP
1 9689_1 8.64e-05
*RES
1 *9690:Y 9689_1 0.56
2 9689_1 *9691:B 0
*END
*D_NET *9692 0.00013872
*CONN
*I *9693:Y O *D _3322
*I *9694:A I *L 0
*CAP
1 9692_1 0.00013872
*RES
1 *9693:Y 9692_1 1.96
2 9692_1 *9694:A 0
*END
*D_NET *9695 0.00052608
*CONN
*I *9696:Y O *D _3323
*I *9697:C I *L 0
*CAP
1 9695_1 0.00052608
*RES
1 *9696:Y 9695_1 11.9467
2 9695_1 *9697:C 0
*END
*D_NET *9698 0.00016296
*CONN
*I *9699:Y O *D _3324
*I *9700:D I *L 0
*CAP
1 9698_1 0.00016296
*RES
1 *9699:Y 9698_1 2.19333
2 9698_1 *9700:D 0
*END
*D_NET *9701 0.0001764
*CONN
*I *9702:Y O *D _3325
*I *9703:A I *L 0
*CAP
1 9701_1 0.0001764
*RES
1 *9702:Y 9701_1 2.56667
2 9701_1 *9703:A 0
*END
*D_NET *9704 0.00013464
*CONN
*I *9705:Q O *D _4085
*I *9706:A I *L 0
*CAP
1 9704_1 0.00013464
*RES
1 *9705:Q 9704_1 1.54
2 9704_1 *9706:A 0
*END
*D_NET *9707 0.00046152
*CONN
*I *9708:Y O *D _3328
*I *9709:C I *L 0
*CAP
1 9707_1 0.00046152
*RES
1 *9708:Y 9707_1 6.48667
2 9707_1 *9709:C 0
*END
*D_NET *9710 0.00017544
*CONN
*I *9711:Y O *D _3330
*I *9712:B I *L 0
*CAP
1 9710_1 0.00017544
*RES
1 *9711:Y 9710_1 2.00667
2 9710_1 *9712:B 0
*END
*D_NET *9713 0.00016968
*CONN
*I *9714:Y O *D _3331
*I *9715:A I *L 0
*CAP
1 9713_1 0.00016968
*RES
1 *9714:Y 9713_1 2.38
2 9713_1 *9715:A 0
*END
*D_NET *9716 0.00033696
*CONN
*I *9717:Y O *D _3332
*I *9718:C I *L 0
*CAP
1 9716_1 0.00033696
*RES
1 *9717:Y 9716_1 6.16
2 9716_1 *9718:C 0
*END
*D_NET *9719 0.00024648
*CONN
*I *9720:Y O *D _3333
*I *9721:D I *L 0
*CAP
1 9719_1 0.00024648
*RES
1 *9720:Y 9719_1 5.18
2 9719_1 *9721:D 0
*END
*D_NET *9722 7.44e-05
*CONN
*I *9723:Y O *D _3334
*I *9724:A I *L 0
*CAP
1 9722_1 7.44e-05
*RES
1 *9723:Y 9722_1 1.4
2 9722_1 *9724:A 0
*END
*D_NET *9725 0.00018
*CONN
*I *9726:Q O *D _4086
*I *9727:A I *L 0
*CAP
1 9725_1 0.00018
*RES
1 *9726:Q 9725_1 1.77333
2 9725_1 *9727:A 0
*END
*D_NET *9728 0.0001584
*CONN
*I *9729:Y O *D _3337
*I *9730:C I *L 0
*CAP
1 9728_1 0.0001584
*RES
1 *9729:Y 9728_1 1.02667
2 9728_1 *9730:C 0
*END
*D_NET *9731 0.00019008
*CONN
*I *9732:Y O *D _3339
*I *9733:B I *L 0
*CAP
1 9731_1 0.00019008
*RES
1 *9732:Y 9731_1 2.61333
2 9731_1 *9733:B 0
*END
*D_NET *9734 0.00015504
*CONN
*I *9735:Y O *D _3340
*I *9736:A I *L 0
*CAP
1 9734_1 0.00015504
*RES
1 *9735:Y 9734_1 1.77333
2 9734_1 *9736:A 0
*END
*D_NET *9737 0.0011796
*CONN
*I *9738:Y O *D _3341
*I *9739:C I *L 0
*CAP
1 9737_1 0.0011796
*RES
1 *9738:Y 9737_1 13.0333
2 9737_1 *9739:C 0
*END
*D_NET *9740 0.0001224
*CONN
*I *9741:Y O *D _3342
*I *9742:D I *L 0
*CAP
1 9740_1 0.0001224
*RES
1 *9741:Y 9740_1 1.4
2 9740_1 *9742:D 0
*END
*D_NET *9743 5.76e-05
*CONN
*I *9744:Y O *D _3343
*I *9745:A I *L 0
*CAP
1 9743_1 5.76e-05
*RES
1 *9744:Y 9743_1 0.373333
2 9743_1 *9745:A 0
*END
*D_NET *9746 0.000156
*CONN
*I *9747:Q O *D _4087
*I *9748:A I *L 0
*CAP
1 9746_1 0.000156
*RES
1 *9747:Q 9746_1 2.33333
2 9746_1 *9748:A 0
*END
*D_NET *9749 0.0001584
*CONN
*I *9750:Y O *D _3346
*I *9751:C I *L 0
*CAP
1 9749_1 0.0001584
*RES
1 *9750:Y 9749_1 1.02667
2 9749_1 *9751:C 0
*END
*D_NET *9752 0.0001428
*CONN
*I *9753:Y O *D _3348
*I *9754:B I *L 0
*CAP
1 9752_1 0.0001428
*RES
1 *9753:Y 9752_1 1.63333
2 9752_1 *9754:B 0
*END
*D_NET *9755 0.00018
*CONN
*I *9756:Y O *D _3349
*I *9757:A I *L 0
*CAP
1 9755_1 0.00018
*RES
1 *9756:Y 9755_1 1.77333
2 9755_1 *9757:A 0
*END
*D_NET *9758 0.0001284
*CONN
*I *9759:Y O *D _3350
*I *9760:C I *L 0
*CAP
1 9758_1 0.0001284
*RES
1 *9759:Y 9758_1 2.56667
2 9758_1 *9760:C 0
*END
*D_NET *9761 0.00043368
*CONN
*I *9762:Y O *D _3351
*I *9763:D I *L 0
*CAP
1 9761_1 0.00043368
*RES
1 *9762:Y 9761_1 4.91333
2 9761_1 *9763:D 0
*END
*D_NET *9764 0.00025104
*CONN
*I *9765:Y O *D _3352
*I *9766:A I *L 0
*CAP
1 9764_1 0.00025104
*RES
1 *9765:Y 9764_1 3.64
2 9764_1 *9766:A 0
*END
*D_NET *9767 0.00413496
*CONN
*I *9768:Q O *D _4088
*I *9769:A I *L 0
*CAP
1 9767_1 0.00413496
*RES
1 *9768:Q 9767_1 47.46
2 9767_1 *9769:A 0
*END
*D_NET *9770 0.00018096
*CONN
*I *9771:Y O *D _3355
*I *9772:C I *L 0
*CAP
1 9770_1 0.00018096
*RES
1 *9771:Y 9770_1 2.52
2 9770_1 *9772:C 0
*END
*D_NET *9773 8.64e-05
*CONN
*I *9774:Y O *D _3357
*I *9775:B I *L 0
*CAP
1 9773_1 8.64e-05
*RES
1 *9774:Y 9773_1 0.56
2 9773_1 *9775:B 0
*END
*D_NET *9776 8.784e-05
*CONN
*I *9777:Y O *D _3358
*I *9778:A I *L 0
*CAP
1 9776_1 8.784e-05
*RES
1 *9777:Y 9776_1 1.77333
2 9776_1 *9778:A 0
*END
*D_NET *9779 0.00010152
*CONN
*I *9780:Y O *D _3359
*I *9781:C I *L 0
*CAP
1 9779_1 0.00010152
*RES
1 *9780:Y 9779_1 1.82
2 9779_1 *9781:C 0
*END
*D_NET *9782 0.00026304
*CONN
*I *9783:Y O *D _3360
*I *9784:D I *L 0
*CAP
1 9782_1 0.00026304
*RES
1 *9783:Y 9782_1 5.97333
2 9782_1 *9784:D 0
*END
*D_NET *9785 8.64e-05
*CONN
*I *9786:Y O *D _3361
*I *9787:A I *L 0
*CAP
1 9785_1 8.64e-05
*RES
1 *9786:Y 9785_1 0.56
2 9785_1 *9787:A 0
*END
*D_NET *9788 0.000342
*CONN
*I *9789:Q O *D _4089
*I *9790:A I *L 0
*CAP
1 9788_1 0.000342
*RES
1 *9789:Q 9788_1 3.64
2 9788_1 *9790:A 0
*END
*D_NET *9791 0.00097824
*CONN
*I *9792:Y O *D _3364
*I *9793:C I *L 0
*CAP
1 9791_1 0.00097824
*RES
1 *9792:Y 9791_1 13.7733
2 9791_1 *9793:C 0
*END
*D_NET *9794 0.00260616
*CONN
*I *9795:Y O *D _3366
*I *9796:B I *L 0
*CAP
1 9794_1 0.00260616
*RES
1 *9795:Y 9794_1 32.66
2 9794_1 *9796:B 0
*END
*D_NET *9797 0.00021264
*CONN
*I *9798:Y O *D _3367
*I *9799:A I *L 0
*CAP
1 9797_1 0.00021264
*RES
1 *9798:Y 9797_1 2.14667
2 9797_1 *9799:A 0
*END
*D_NET *9800 0.0006084
*CONN
*I *9801:Y O *D _3368
*I *9802:C I *L 0
*CAP
1 9800_1 0.0006084
*RES
1 *9801:Y 9800_1 6.67333
2 9800_1 *9802:C 0
*END
*D_NET *9803 0.00016512
*CONN
*I *9804:Y O *D _3369
*I *9805:D I *L 0
*CAP
1 9803_1 0.00016512
*RES
1 *9804:Y 9803_1 3.36
2 9803_1 *9805:D 0
*END
*D_NET *9806 0.0001728
*CONN
*I *9807:Y O *D _3370
*I *9808:A I *L 0
*CAP
1 9806_1 0.0001728
*RES
1 *9807:Y 9806_1 1.12
2 9806_1 *9808:A 0
*END
*D_NET *9809 8.64e-05
*CONN
*I *9810:Q O *D _4090
*I *9811:A I *L 0
*CAP
1 9809_1 8.64e-05
*RES
1 *9810:Q 9809_1 0.56
2 9809_1 *9811:A 0
*END
*D_NET *9812 0.0001584
*CONN
*I *9813:Y O *D _3373
*I *9814:C I *L 0
*CAP
1 9812_1 0.0001584
*RES
1 *9813:Y 9812_1 1.02667
2 9812_1 *9814:C 0
*END
*D_NET *9815 8.64e-05
*CONN
*I *9816:Y O *D _3375
*I *9817:B I *L 0
*CAP
1 9815_1 8.64e-05
*RES
1 *9816:Y 9815_1 0.56
2 9815_1 *9817:B 0
*END
*D_NET *9818 7.776e-05
*CONN
*I *9819:Y O *D _3376
*I *9820:A I *L 0
*CAP
1 9818_1 7.776e-05
*RES
1 *9819:Y 9818_1 0.96
2 9818_1 *9820:A 0
*END
*D_NET *9821 0.00027168
*CONN
*I *9822:Y O *D _3377
*I *9823:C I *L 0
*CAP
1 9821_1 0.00027168
*RES
1 *9822:Y 9821_1 3.54667
2 9821_1 *9823:C 0
*END
*D_NET *9824 0.00039912
*CONN
*I *9825:Y O *D _3378
*I *9826:D I *L 0
*CAP
1 9824_1 0.00039912
*RES
1 *9825:Y 9824_1 7.42
2 9824_1 *9826:D 0
*END
*D_NET *9827 8.64e-05
*CONN
*I *9828:Y O *D _3379
*I *9829:A I *L 0
*CAP
1 9827_1 8.64e-05
*RES
1 *9828:Y 9827_1 0.56
2 9827_1 *9829:A 0
*END
*D_NET *9830 8.64e-05
*CONN
*I *9831:Q O *D _4091
*I *9832:A I *L 0
*CAP
1 9830_1 8.64e-05
*RES
1 *9831:Q 9830_1 0.56
2 9830_1 *9832:A 0
*END
*D_NET *9833 0.00138192
*CONN
*I *9834:Y O *D _3382
*I *9835:C I *L 0
*CAP
1 9833_1 0.00138192
*RES
1 *9834:Y 9833_1 16.2533
2 9833_1 *9835:C 0
*END
*D_NET *9836 0.00019008
*CONN
*I *9837:Y O *D _3384
*I *9838:B I *L 0
*CAP
1 9836_1 0.00019008
*RES
1 *9837:Y 9836_1 2.61333
2 9836_1 *9838:B 0
*END
*D_NET *9839 0.0002244
*CONN
*I *9840:Y O *D _3385
*I *9841:A I *L 0
*CAP
1 9839_1 0.0002244
*RES
1 *9840:Y 9839_1 2.56667
2 9839_1 *9841:A 0
*END
*D_NET *9842 0.00046032
*CONN
*I *9843:Y O *D _3386
*I *9844:C I *L 0
*CAP
1 9842_1 0.00046032
*RES
1 *9843:Y 9842_1 8.12
2 9842_1 *9844:C 0
*END
*D_NET *9845 0.0001284
*CONN
*I *9846:Y O *D _3387
*I *9847:D I *L 0
*CAP
1 9845_1 0.0001284
*RES
1 *9846:Y 9845_1 2.56667
2 9845_1 *9847:D 0
*END
*D_NET *9848 0.0001632
*CONN
*I *9849:Y O *D _3389
*I *9850:B I *L 0
*CAP
1 9848_1 0.0001632
*RES
1 *9849:Y 9848_1 1.86667
2 9848_1 *9850:B 0
*END
*D_NET *9851 0.0001584
*CONN
*I *9852:Y O *D _3390
*I *9853:C I *L 0
*CAP
1 9851_1 0.0001584
*RES
1 *9852:Y 9851_1 1.02667
2 9851_1 *9853:C 0
*END
*D_NET *9854 0.00018216
*CONN
*I *9855:Y O *D _3391
*I *9856:D I *L 0
*CAP
1 9854_1 0.00018216
*RES
1 *9855:Y 9854_1 4.06
2 9854_1 *9856:D 0
*END
*D_NET *9857 0.00012864
*CONN
*I *9858:Y O *D _3392
*I *9859:B I *L 0
*CAP
1 9857_1 0.00012864
*RES
1 *9858:Y 9857_1 2.24
2 9857_1 *9859:B 0
*END
*D_NET *9860 0.00011856
*CONN
*I *9861:Y O *D _3393
*I *9862:B I *L 0
*CAP
1 9860_1 0.00011856
*RES
1 *9861:Y 9860_1 1.4
2 9860_1 *9862:B 0
*END
*D_NET *9863 0.00024624
*CONN
*I *9864:Y O *D _3394
*I *9865:D I *L 0
*CAP
1 9863_1 0.00024624
*RES
1 *9864:Y 9863_1 5.50667
2 9863_1 *9865:D 0
*END
*D_NET *9866 8.64e-05
*CONN
*I *9867:Y O *D _3395
*I *9868:B I *L 0
*CAP
1 9866_1 8.64e-05
*RES
1 *9867:Y 9866_1 0.56
2 9866_1 *9868:B 0
*END
*D_NET *9869 0.00015408
*CONN
*I *9870:Y O *D _3397
*I *9871:A I *L 0
*CAP
1 9869_1 0.00015408
*RES
1 *9870:Y 9869_1 1.77333
2 9869_1 *9871:A 0
*END
*D_NET *9872 0.00012768
*CONN
*I *9873:Y O *D _3400
*I *9874:D I *L 0
*CAP
1 9872_1 0.00012768
*RES
1 *9873:Y 9872_1 3.54667
2 9872_1 *9874:D 0
*END
*D_NET *9875 4.032e-05
*CONN
*I *9876:Y O *D _3401
*I *9877:A I *L 0
*CAP
1 9875_1 4.032e-05
*RES
1 *9876:Y 9875_1 1.12
2 9875_1 *9877:A 0
*END
*D_NET *9878 0.00023568
*CONN
*I *9879:Y O *D _3402
*I *9880:D I *L 0
*CAP
1 9878_1 0.00023568
*RES
1 *9879:Y 9878_1 5.88
2 9878_1 *9880:D 0
*END
*D_NET *9881 0.0003384
*CONN
*I *9882:Y O *D _3403
*I *9883:C I *L 0
*CAP
1 9881_1 0.0003384
*RES
1 *9882:Y 9881_1 6.06667
2 9881_1 *9883:C 0
*END
*D_NET *9884 0.0001764
*CONN
*I *9885:Y O *D _3404
*I *9886:D I *L 0
*CAP
1 9884_1 0.0001764
*RES
1 *9885:Y 9884_1 2.56667
2 9884_1 *9886:D 0
*END
*D_NET *9887 0.0001584
*CONN
*I *9888:Y O *D _3407
*I *9889:C I *L 0
*CAP
1 9887_1 0.0001584
*RES
1 *9888:Y 9887_1 1.02667
2 9887_1 *9889:C 0
*END
*D_NET *9890 0.00023232
*CONN
*I *9891:Y O *D _3408
*I *9892:D I *L 0
*CAP
1 9890_1 0.00023232
*RES
1 *9891:Y 9890_1 5.22667
2 9890_1 *9892:D 0
*END
*D_NET *9893 8.64e-05
*CONN
*I *9894:Y O *D _3409
*I *9895:C I *L 0
*CAP
1 9893_1 8.64e-05
*RES
1 *9894:Y 9893_1 0.56
2 9893_1 *9895:C 0
*END
*D_NET *9896 0.0002688
*CONN
*I *9897:Y O *D _3410
*I *9898:D I *L 0
*CAP
1 9896_1 0.0002688
*RES
1 *9897:Y 9896_1 7.46667
2 9896_1 *9898:D 0
*END
*D_NET *9899 0.0001632
*CONN
*I *9900:Y O *D _3411
*I *9901:C I *L 0
*CAP
1 9899_1 0.0001632
*RES
1 *9900:Y 9899_1 1.86667
2 9899_1 *9901:C 0
*END
*D_NET *9902 0.00030936
*CONN
*I *9903:Y O *D _3412
*I *9904:D I *L 0
*CAP
1 9902_1 0.00030936
*RES
1 *9903:Y 9902_1 5.08667
2 9902_1 *9904:D 0
*END
*D_NET *9905 0.0001584
*CONN
*I *9906:Y O *D _3413
*I *9907:C I *L 0
*CAP
1 9905_1 0.0001584
*RES
1 *9906:Y 9905_1 1.02667
2 9905_1 *9907:C 0
*END
*D_NET *9908 0.00018912
*CONN
*I *9909:Y O *D _3414
*I *9910:D I *L 0
*CAP
1 9908_1 0.00018912
*RES
1 *9909:Y 9908_1 3.92
2 9908_1 *9910:D 0
*END
*D_NET *9911 0.00010176
*CONN
*I *9912:Y O *D _3415
*I *9913:C I *L 0
*CAP
1 9911_1 0.00010176
*RES
1 *9912:Y 9911_1 1.49333
2 9911_1 *9913:C 0
*END
*D_NET *9914 0.00018216
*CONN
*I *9915:Y O *D _3416
*I *9916:D I *L 0
*CAP
1 9914_1 0.00018216
*RES
1 *9915:Y 9914_1 4.06
2 9914_1 *9916:D 0
*END
*D_NET *9917 0.0002412
*CONN
*I *9918:Y O *D _3417
*I *9919:C I *L 0
*CAP
1 9917_1 0.0002412
*RES
1 *9918:Y 9917_1 2.47333
2 9917_1 *9919:C 0
*END
*D_NET *9920 0.00015504
*CONN
*I *9921:Y O *D _3418
*I *9922:D I *L 0
*CAP
1 9920_1 0.00015504
*RES
1 *9921:Y 9920_1 3.64
2 9920_1 *9922:D 0
*END
*D_NET *9923 0.0001584
*CONN
*I *9924:Y O *D _3419
*I *9925:C I *L 0
*CAP
1 9923_1 0.0001584
*RES
1 *9924:Y 9923_1 1.02667
2 9923_1 *9925:C 0
*END
*D_NET *9926 0.00033816
*CONN
*I *9927:Y O *D _3420
*I *9928:D I *L 0
*CAP
1 9926_1 0.00033816
*RES
1 *9927:Y 9926_1 6.39333
2 9926_1 *9928:D 0
*END
*D_NET *9929 0.0001584
*CONN
*I *9930:Y O *D _3421
*I *9931:C I *L 0
*CAP
1 9929_1 0.0001584
*RES
1 *9930:Y 9929_1 1.02667
2 9929_1 *9931:C 0
*END
*D_NET *9932 0.0002652
*CONN
*I *9933:Y O *D _3422
*I *9934:D I *L 0
*CAP
1 9932_1 0.0002652
*RES
1 *9933:Y 9932_1 3.03333
2 9932_1 *9934:D 0
*END
*D_NET *9935 0.0001632
*CONN
*I *9936:Y O *D _3423
*I *9937:C I *L 0
*CAP
1 9935_1 0.0001632
*RES
1 *9936:Y 9935_1 1.86667
2 9935_1 *9937:C 0
*END
*D_NET *9938 0.00027768
*CONN
*I *9939:Y O *D _3424
*I *9940:D I *L 0
*CAP
1 9938_1 0.00027768
*RES
1 *9939:Y 9938_1 4.71333
2 9938_1 *9940:D 0
*END
*D_NET *9941 0.00038904
*CONN
*I *9942:Y O *D _3425
*I *9943:C I *L 0
*CAP
1 9941_1 0.00038904
*RES
1 *9942:Y 9941_1 3.59333
2 9941_1 *9943:C 0
*END
*D_NET *9944 0.0003144
*CONN
*I *9945:Y O *D _3426
*I *9946:D I *L 0
*CAP
1 9944_1 0.0003144
*RES
1 *9945:Y 9944_1 4.38667
2 9944_1 *9946:D 0
*END
*D_NET *9947 0.0001584
*CONN
*I *9948:Y O *D _3427
*I *9949:C I *L 0
*CAP
1 9947_1 0.0001584
*RES
1 *9948:Y 9947_1 1.02667
2 9947_1 *9949:C 0
*END
*D_NET *9950 0.00015504
*CONN
*I *9951:Y O *D _3428
*I *9952:D I *L 0
*CAP
1 9950_1 0.00015504
*RES
1 *9951:Y 9950_1 3.64
2 9950_1 *9952:D 0
*END
*D_NET *9953 0.0001584
*CONN
*I *9954:Y O *D _3429
*I *9955:C I *L 0
*CAP
1 9953_1 0.0001584
*RES
1 *9954:Y 9953_1 1.02667
2 9953_1 *9955:C 0
*END
*D_NET *9956 0.00018216
*CONN
*I *9957:Y O *D _3430
*I *9958:D I *L 0
*CAP
1 9956_1 0.00018216
*RES
1 *9957:Y 9956_1 4.06
2 9956_1 *9958:D 0
*END
*D_NET *9959 0.0001584
*CONN
*I *9960:Y O *D _3431
*I *9961:C I *L 0
*CAP
1 9959_1 0.0001584
*RES
1 *9960:Y 9959_1 1.02667
2 9959_1 *9961:C 0
*END
*D_NET *9962 0.00019584
*CONN
*I *9963:Y O *D _3432
*I *9964:D I *L 0
*CAP
1 9962_1 0.00019584
*RES
1 *9963:Y 9962_1 4.10667
2 9962_1 *9964:D 0
*END
*D_NET *9965 0.0002736
*CONN
*I *9966:Y O *D _3433
*I *9967:C I *L 0
*CAP
1 9965_1 0.0002736
*RES
1 *9966:Y 9965_1 1.77333
2 9965_1 *9967:C 0
*END
*D_NET *9968 0.00028704
*CONN
*I *9969:Y O *D _3434
*I *9970:D I *L 0
*CAP
1 9968_1 0.00028704
*RES
1 *9969:Y 9968_1 4.29333
2 9968_1 *9970:D 0
*END
*D_NET *9971 0.0001584
*CONN
*I *9972:Y O *D _3435
*I *9973:C I *L 0
*CAP
1 9971_1 0.0001584
*RES
1 *9972:Y 9971_1 1.02667
2 9971_1 *9973:C 0
*END
*D_NET *9974 0.0003108
*CONN
*I *9975:Y O *D _3436
*I *9976:D I *L 0
*CAP
1 9974_1 0.0003108
*RES
1 *9975:Y 9974_1 6.3
2 9974_1 *9976:D 0
*END
*D_NET *9977 0.0001584
*CONN
*I *9978:Y O *D _3437
*I *9979:C I *L 0
*CAP
1 9977_1 0.0001584
*RES
1 *9978:Y 9977_1 1.02667
2 9977_1 *9979:C 0
*END
*D_NET *9980 0.00019584
*CONN
*I *9981:Y O *D _3438
*I *9982:D I *L 0
*CAP
1 9980_1 0.00019584
*RES
1 *9981:Y 9980_1 4.10667
2 9980_1 *9982:D 0
*END
*D_NET *9983 0.0001584
*CONN
*I *9984:Y O *D _3439
*I *9985:C I *L 0
*CAP
1 9983_1 0.0001584
*RES
1 *9984:Y 9983_1 1.02667
2 9983_1 *9985:C 0
*END
*D_NET *9986 0.00039048
*CONN
*I *9987:Y O *D _3440
*I *9988:D I *L 0
*CAP
1 9986_1 0.00039048
*RES
1 *9987:Y 9986_1 7.98
2 9986_1 *9988:D 0
*END
*D_NET *9989 0.0001584
*CONN
*I *9990:Y O *D _3441
*I *9991:C I *L 0
*CAP
1 9989_1 0.0001584
*RES
1 *9990:Y 9989_1 1.02667
2 9989_1 *9991:C 0
*END
*D_NET *9992 0.0001632
*CONN
*I *9993:Y O *D _3442
*I *9994:D I *L 0
*CAP
1 9992_1 0.0001632
*RES
1 *9993:Y 9992_1 1.86667
2 9992_1 *9994:D 0
*END
*D_NET *9995 0.0001584
*CONN
*I *9996:Y O *D _3443
*I *9997:C I *L 0
*CAP
1 9995_1 0.0001584
*RES
1 *9996:Y 9995_1 1.02667
2 9995_1 *9997:C 0
*END
*D_NET *9998 0.00021624
*CONN
*I *9999:Y O *D _3444
*I *10000:D I *L 0
*CAP
1 9998_1 0.00021624
*RES
1 *9999:Y 9998_1 2.47333
2 9998_1 *10000:D 0
*END
*D_NET *10001 0.0002412
*CONN
*I *10002:Y O *D _3445
*I *10003:C I *L 0
*CAP
1 10001_1 0.0002412
*RES
1 *10002:Y 10001_1 2.47333
2 10001_1 *10003:C 0
*END
*D_NET *10004 0.00021624
*CONN
*I *10005:Y O *D _3446
*I *10006:D I *L 0
*CAP
1 10004_1 0.00021624
*RES
1 *10005:Y 10004_1 4.34
2 10004_1 *10006:D 0
*END
*D_NET *10007 0.0001584
*CONN
*I *10008:Y O *D _3447
*I *10009:C I *L 0
*CAP
1 10007_1 0.0001584
*RES
1 *10008:Y 10007_1 1.02667
2 10007_1 *10009:C 0
*END
*D_NET *10010 0.00020976
*CONN
*I *10011:Y O *D _3448
*I *10012:D I *L 0
*CAP
1 10010_1 0.00020976
*RES
1 *10011:Y 10010_1 3.82667
2 10010_1 *10012:D 0
*END
*D_NET *10013 0.0001584
*CONN
*I *10014:Y O *D _3449
*I *10015:C I *L 0
*CAP
1 10013_1 0.0001584
*RES
1 *10014:Y 10013_1 1.02667
2 10013_1 *10015:C 0
*END
*D_NET *10016 0.00032616
*CONN
*I *10017:Y O *D _3450
*I *10018:D I *L 0
*CAP
1 10016_1 0.00032616
*RES
1 *10017:Y 10016_1 4.06
2 10016_1 *10018:D 0
*END
*D_NET *10019 0.0001584
*CONN
*I *10020:Y O *D _3451
*I *10021:C I *L 0
*CAP
1 10019_1 0.0001584
*RES
1 *10020:Y 10019_1 1.02667
2 10019_1 *10021:C 0
*END
*D_NET *10022 0.00012096
*CONN
*I *10023:Y O *D _3452
*I *10024:D I *L 0
*CAP
1 10022_1 0.00012096
*RES
1 *10023:Y 10022_1 3.36
2 10022_1 *10024:D 0
*END
*D_NET *10025 0.0001584
*CONN
*I *10026:Y O *D _3453
*I *10027:C I *L 0
*CAP
1 10025_1 0.0001584
*RES
1 *10026:Y 10025_1 1.02667
2 10025_1 *10027:C 0
*END
*D_NET *10028 0.00012816
*CONN
*I *10029:Y O *D _3454
*I *10030:D I *L 0
*CAP
1 10028_1 0.00012816
*RES
1 *10029:Y 10028_1 2.89333
2 10028_1 *10030:D 0
*END
*D_NET *10031 0.0001584
*CONN
*I *10032:Y O *D _3455
*I *10033:C I *L 0
*CAP
1 10031_1 0.0001584
*RES
1 *10032:Y 10031_1 1.02667
2 10031_1 *10033:C 0
*END
*D_NET *10034 0.00024984
*CONN
*I *10035:Y O *D _3456
*I *10036:D I *L 0
*CAP
1 10034_1 0.00024984
*RES
1 *10035:Y 10034_1 5.27333
2 10034_1 *10036:D 0
*END
*D_NET *10037 0.0001584
*CONN
*I *10038:Y O *D _3457
*I *10039:C I *L 0
*CAP
1 10037_1 0.0001584
*RES
1 *10038:Y 10037_1 1.02667
2 10037_1 *10039:C 0
*END
*D_NET *10040 0.00027144
*CONN
*I *10041:Y O *D _3458
*I *10042:D I *L 0
*CAP
1 10040_1 0.00027144
*RES
1 *10041:Y 10040_1 3.14
2 10040_1 *10042:D 0
*END
*D_NET *10043 0.0001584
*CONN
*I *10044:Y O *D _3459
*I *10045:C I *L 0
*CAP
1 10043_1 0.0001584
*RES
1 *10044:Y 10043_1 1.02667
2 10043_1 *10045:C 0
*END
*D_NET *10046 0.00029376
*CONN
*I *10047:Y O *D _3460
*I *10048:D I *L 0
*CAP
1 10046_1 0.00029376
*RES
1 *10047:Y 10046_1 6.16
2 10046_1 *10048:D 0
*END
*D_NET *10049 0.0001584
*CONN
*I *10050:Y O *D _3461
*I *10051:C I *L 0
*CAP
1 10049_1 0.0001584
*RES
1 *10050:Y 10049_1 1.02667
2 10049_1 *10051:C 0
*END
*D_NET *10052 0.00030456
*CONN
*I *10053:Y O *D _3462
*I *10054:D I *L 0
*CAP
1 10052_1 0.00030456
*RES
1 *10053:Y 10052_1 5.46
2 10052_1 *10054:D 0
*END
*D_NET *10055 0.0001584
*CONN
*I *10056:Y O *D _3463
*I *10057:C I *L 0
*CAP
1 10055_1 0.0001584
*RES
1 *10056:Y 10055_1 1.02667
2 10055_1 *10057:C 0
*END
*D_NET *10058 0.00030768
*CONN
*I *10059:Y O *D _3464
*I *10060:D I *L 0
*CAP
1 10058_1 0.00030768
*RES
1 *10059:Y 10058_1 5.32
2 10058_1 *10060:D 0
*END
*D_NET *10061 8.64e-05
*CONN
*I *10062:Y O *D _3465
*I *10063:C I *L 0
*CAP
1 10061_1 8.64e-05
*RES
1 *10062:Y 10061_1 0.56
2 10061_1 *10063:C 0
*END
*D_NET *10064 0.00031944
*CONN
*I *10065:Y O *D _3466
*I *10066:D I *L 0
*CAP
1 10064_1 0.00031944
*RES
1 *10065:Y 10064_1 5.94
2 10064_1 *10066:D 0
*END
*D_NET *10067 0.0001584
*CONN
*I *10068:Y O *D _3467
*I *10069:C I *L 0
*CAP
1 10067_1 0.0001584
*RES
1 *10068:Y 10067_1 1.02667
2 10067_1 *10069:C 0
*END
*D_NET *10070 0.00015504
*CONN
*I *10071:Y O *D _3468
*I *10072:D I *L 0
*CAP
1 10070_1 0.00015504
*RES
1 *10071:Y 10070_1 3.64
2 10070_1 *10072:D 0
*END
*D_NET *10073 0.00014544
*CONN
*I *10074:Y O *D _3469
*I *10075:C I *L 0
*CAP
1 10073_1 0.00014544
*RES
1 *10074:Y 10073_1 2.14667
2 10073_1 *10075:C 0
*END
*D_NET *10076 0.00029856
*CONN
*I *10077:Y O *D _3470
*I *10078:D I *L 0
*CAP
1 10076_1 0.00029856
*RES
1 *10077:Y 10076_1 4.29333
2 10076_1 *10078:D 0
*END
*D_NET *10079 0.0001584
*CONN
*I *10080:Y O *D _3472
*I *10081:C I *L 0
*CAP
1 10079_1 0.0001584
*RES
1 *10080:Y 10079_1 1.02667
2 10079_1 *10081:C 0
*END
*D_NET *10082 0.00041256
*CONN
*I *10083:Y O *D _3473
*I *10084:D I *L 0
*CAP
1 10082_1 0.00041256
*RES
1 *10083:Y 10082_1 7.79333
2 10082_1 *10084:D 0
*END
*D_NET *10085 0.00035064
*CONN
*I *10086:Y O *D _3474
*I *10087:C I *L 0
*CAP
1 10085_1 0.00035064
*RES
1 *10086:Y 10085_1 4.9
2 10085_1 *10087:C 0
*END
*D_NET *10088 0.00015504
*CONN
*I *10089:Y O *D _3475
*I *10090:D I *L 0
*CAP
1 10088_1 0.00015504
*RES
1 *10089:Y 10088_1 3.64
2 10088_1 *10090:D 0
*END
*D_NET *10091 0.0001584
*CONN
*I *10092:Y O *D _3476
*I *10093:C I *L 0
*CAP
1 10091_1 0.0001584
*RES
1 *10092:Y 10091_1 1.02667
2 10091_1 *10093:C 0
*END
*D_NET *10094 0.0001224
*CONN
*I *10095:Y O *D _3477
*I *10096:D I *L 0
*CAP
1 10094_1 0.0001224
*RES
1 *10095:Y 10094_1 1.4
2 10094_1 *10096:D 0
*END
*D_NET *10097 0.00021024
*CONN
*I *10098:Y O *D _3478
*I *10099:C I *L 0
*CAP
1 10097_1 0.00021024
*RES
1 *10098:Y 10097_1 3.17333
2 10097_1 *10099:C 0
*END
*D_NET *10100 0.00024456
*CONN
*I *10101:Y O *D _3479
*I *10102:D I *L 0
*CAP
1 10100_1 0.00024456
*RES
1 *10101:Y 10100_1 3.12667
2 10100_1 *10102:D 0
*END
*D_NET *10103 0.0001584
*CONN
*I *10104:Y O *D _3480
*I *10105:C I *L 0
*CAP
1 10103_1 0.0001584
*RES
1 *10104:Y 10103_1 1.02667
2 10103_1 *10105:C 0
*END
*D_NET *10106 0.00017184
*CONN
*I *10107:Y O *D _3481
*I *10108:D I *L 0
*CAP
1 10106_1 0.00017184
*RES
1 *10107:Y 10106_1 3.54667
2 10106_1 *10108:D 0
*END
*D_NET *10109 0.0001584
*CONN
*I *10110:Y O *D _3482
*I *10111:C I *L 0
*CAP
1 10109_1 0.0001584
*RES
1 *10110:Y 10109_1 1.02667
2 10109_1 *10111:C 0
*END
*D_NET *10112 0.00018216
*CONN
*I *10113:Y O *D _3483
*I *10114:D I *L 0
*CAP
1 10112_1 0.00018216
*RES
1 *10113:Y 10112_1 4.06
2 10112_1 *10114:D 0
*END
*D_NET *10115 0.0001584
*CONN
*I *10116:Y O *D _3484
*I *10117:C I *L 0
*CAP
1 10115_1 0.0001584
*RES
1 *10116:Y 10115_1 1.02667
2 10115_1 *10117:C 0
*END
*D_NET *10118 0.00044064
*CONN
*I *10119:Y O *D _3485
*I *10120:D I *L 0
*CAP
1 10118_1 0.00044064
*RES
1 *10119:Y 10118_1 5.04
2 10118_1 *10120:D 0
*END
*D_NET *10121 0.0001632
*CONN
*I *10122:Y O *D _3486
*I *10123:C I *L 0
*CAP
1 10121_1 0.0001632
*RES
1 *10122:Y 10121_1 1.86667
2 10121_1 *10123:C 0
*END
*D_NET *10124 0.00025368
*CONN
*I *10125:Y O *D _3487
*I *10126:D I *L 0
*CAP
1 10124_1 0.00025368
*RES
1 *10125:Y 10124_1 4.15333
2 10124_1 *10126:D 0
*END
*D_NET *10127 0.0001428
*CONN
*I *10128:Y O *D _3488
*I *10129:C I *L 0
*CAP
1 10127_1 0.0001428
*RES
1 *10128:Y 10127_1 1.63333
2 10127_1 *10129:C 0
*END
*D_NET *10130 0.00014112
*CONN
*I *10131:Y O *D _3489
*I *10132:D I *L 0
*CAP
1 10130_1 0.00014112
*RES
1 *10131:Y 10130_1 3.92
2 10130_1 *10132:D 0
*END
*D_NET *10133 0.0001584
*CONN
*I *10134:Y O *D _3490
*I *10135:C I *L 0
*CAP
1 10133_1 0.0001584
*RES
1 *10134:Y 10133_1 1.02667
2 10133_1 *10135:C 0
*END
*D_NET *10136 0.00017184
*CONN
*I *10137:Y O *D _3491
*I *10138:D I *L 0
*CAP
1 10136_1 0.00017184
*RES
1 *10137:Y 10136_1 3.54667
2 10136_1 *10138:D 0
*END
*D_NET *10139 0.0001584
*CONN
*I *10140:Y O *D _3492
*I *10141:C I *L 0
*CAP
1 10139_1 0.0001584
*RES
1 *10140:Y 10139_1 1.02667
2 10139_1 *10141:C 0
*END
*D_NET *10142 0.00025104
*CONN
*I *10143:Y O *D _3493
*I *10144:D I *L 0
*CAP
1 10142_1 0.00025104
*RES
1 *10143:Y 10142_1 3.64
2 10142_1 *10144:D 0
*END
*D_NET *10145 0.0001584
*CONN
*I *10146:Y O *D _3494
*I *10147:C I *L 0
*CAP
1 10145_1 0.0001584
*RES
1 *10146:Y 10145_1 1.02667
2 10145_1 *10147:C 0
*END
*D_NET *10148 0.00017184
*CONN
*I *10149:Y O *D _3495
*I *10150:D I *L 0
*CAP
1 10148_1 0.00017184
*RES
1 *10149:Y 10148_1 3.54667
2 10148_1 *10150:D 0
*END
*D_NET *10151 0.0001584
*CONN
*I *10152:Y O *D _3496
*I *10153:C I *L 0
*CAP
1 10151_1 0.0001584
*RES
1 *10152:Y 10151_1 1.02667
2 10151_1 *10153:C 0
*END
*D_NET *10154 0.00025344
*CONN
*I *10155:Y O *D _3497
*I *10156:D I *L 0
*CAP
1 10154_1 0.00025344
*RES
1 *10155:Y 10154_1 4.48
2 10154_1 *10156:D 0
*END
*D_NET *10157 0.0001584
*CONN
*I *10158:Y O *D _3498
*I *10159:C I *L 0
*CAP
1 10157_1 0.0001584
*RES
1 *10158:Y 10157_1 1.02667
2 10157_1 *10159:C 0
*END
*D_NET *10160 0.00054168
*CONN
*I *10161:Y O *D _3499
*I *10162:D I *L 0
*CAP
1 10160_1 0.00054168
*RES
1 *10161:Y 10160_1 7.51333
2 10160_1 *10162:D 0
*END
*D_NET *10163 0.0001584
*CONN
*I *10164:Y O *D _3500
*I *10165:C I *L 0
*CAP
1 10163_1 0.0001584
*RES
1 *10164:Y 10163_1 1.02667
2 10163_1 *10165:C 0
*END
*D_NET *10166 0.0003048
*CONN
*I *10167:Y O *D _3501
*I *10168:D I *L 0
*CAP
1 10166_1 0.0003048
*RES
1 *10167:Y 10166_1 5.13333
2 10166_1 *10168:D 0
*END
*D_NET *10169 0.000552
*CONN
*I *10170:Y O *D _3502
*I *10171:C I *L 0
*CAP
1 10169_1 0.000552
*RES
1 *10170:Y 10169_1 5.6
2 10169_1 *10171:C 0
*END
*D_NET *10172 0.0001584
*CONN
*I *10173:Y O *D _3503
*I *10174:D I *L 0
*CAP
1 10172_1 0.0001584
*RES
1 *10173:Y 10172_1 3.17333
2 10172_1 *10174:D 0
*END
*D_NET *10175 0.0001584
*CONN
*I *10176:Y O *D _3504
*I *10177:C I *L 0
*CAP
1 10175_1 0.0001584
*RES
1 *10176:Y 10175_1 1.02667
2 10175_1 *10177:C 0
*END
*D_NET *10178 0.00029736
*CONN
*I *10179:Y O *D _3505
*I *10180:D I *L 0
*CAP
1 10178_1 0.00029736
*RES
1 *10179:Y 10178_1 5.92667
2 10178_1 *10180:D 0
*END
*D_NET *10181 0.0001584
*CONN
*I *10182:Y O *D _3506
*I *10183:C I *L 0
*CAP
1 10181_1 0.0001584
*RES
1 *10182:Y 10181_1 1.02667
2 10181_1 *10183:C 0
*END
*D_NET *10184 0.00017184
*CONN
*I *10185:Y O *D _3507
*I *10186:D I *L 0
*CAP
1 10184_1 0.00017184
*RES
1 *10185:Y 10184_1 3.54667
2 10184_1 *10186:D 0
*END
*D_NET *10187 8.64e-05
*CONN
*I *10188:Y O *D _3508
*I *10189:C I *L 0
*CAP
1 10187_1 8.64e-05
*RES
1 *10188:Y 10187_1 0.56
2 10187_1 *10189:C 0
*END
*D_NET *10190 0.00024144
*CONN
*I *10191:Y O *D _3509
*I *10192:D I *L 0
*CAP
1 10190_1 0.00024144
*RES
1 *10191:Y 10190_1 4.2
2 10190_1 *10192:D 0
*END
*D_NET *10193 0.0001584
*CONN
*I *10194:Y O *D _3510
*I *10195:C I *L 0
*CAP
1 10193_1 0.0001584
*RES
1 *10194:Y 10193_1 1.02667
2 10193_1 *10195:C 0
*END
*D_NET *10196 0.00025032
*CONN
*I *10197:Y O *D _3511
*I *10198:D I *L 0
*CAP
1 10196_1 0.00025032
*RES
1 *10197:Y 10196_1 4.62
2 10196_1 *10198:D 0
*END
*D_NET *10199 0.0001584
*CONN
*I *10200:Y O *D _3512
*I *10201:C I *L 0
*CAP
1 10199_1 0.0001584
*RES
1 *10200:Y 10199_1 1.02667
2 10199_1 *10201:C 0
*END
*D_NET *10202 0.00063144
*CONN
*I *10203:Y O *D _3513
*I *10204:D I *L 0
*CAP
1 10202_1 0.00063144
*RES
1 *10203:Y 10202_1 9.14
2 10202_1 *10204:D 0
*END
*D_NET *10205 0.0001584
*CONN
*I *10206:Y O *D _3514
*I *10207:C I *L 0
*CAP
1 10205_1 0.0001584
*RES
1 *10206:Y 10205_1 1.02667
2 10205_1 *10207:C 0
*END
*D_NET *10208 0.00018216
*CONN
*I *10209:Y O *D _3515
*I *10210:D I *L 0
*CAP
1 10208_1 0.00018216
*RES
1 *10209:Y 10208_1 4.06
2 10208_1 *10210:D 0
*END
*D_NET *10211 0.0001584
*CONN
*I *10212:Y O *D _3516
*I *10213:C I *L 0
*CAP
1 10211_1 0.0001584
*RES
1 *10212:Y 10211_1 1.02667
2 10211_1 *10213:C 0
*END
*D_NET *10214 0.00024264
*CONN
*I *10215:Y O *D _3517
*I *10216:D I *L 0
*CAP
1 10214_1 0.00024264
*RES
1 *10215:Y 10214_1 5.74
2 10214_1 *10216:D 0
*END
*D_NET *10217 0.0001584
*CONN
*I *10218:Y O *D _3518
*I *10219:C I *L 0
*CAP
1 10217_1 0.0001584
*RES
1 *10218:Y 10217_1 1.02667
2 10217_1 *10219:C 0
*END
*D_NET *10220 0.0001764
*CONN
*I *10221:Y O *D _3519
*I *10222:D I *L 0
*CAP
1 10220_1 0.0001764
*RES
1 *10221:Y 10220_1 2.56667
2 10220_1 *10222:D 0
*END
*D_NET *10223 0.0001584
*CONN
*I *10224:Y O *D _3520
*I *10225:C I *L 0
*CAP
1 10223_1 0.0001584
*RES
1 *10224:Y 10223_1 1.02667
2 10223_1 *10225:C 0
*END
*D_NET *10226 0.00017184
*CONN
*I *10227:Y O *D _3521
*I *10228:D I *L 0
*CAP
1 10226_1 0.00017184
*RES
1 *10227:Y 10226_1 3.54667
2 10226_1 *10228:D 0
*END
*D_NET *10229 0.0001584
*CONN
*I *10230:Y O *D _3522
*I *10231:C I *L 0
*CAP
1 10229_1 0.0001584
*RES
1 *10230:Y 10229_1 1.02667
2 10229_1 *10231:C 0
*END
*D_NET *10232 0.00017616
*CONN
*I *10233:Y O *D _3523
*I *10234:D I *L 0
*CAP
1 10232_1 0.00017616
*RES
1 *10233:Y 10232_1 2.89333
2 10232_1 *10234:D 0
*END
*D_NET *10235 0.0001584
*CONN
*I *10236:Y O *D _3524
*I *10237:C I *L 0
*CAP
1 10235_1 0.0001584
*RES
1 *10236:Y 10235_1 1.02667
2 10235_1 *10237:C 0
*END
*D_NET *10238 0.0002856
*CONN
*I *10239:Y O *D _3525
*I *10240:D I *L 0
*CAP
1 10238_1 0.0002856
*RES
1 *10239:Y 10238_1 3.26667
2 10238_1 *10240:D 0
*END
*D_NET *10241 0.0001584
*CONN
*I *10242:Y O *D _3526
*I *10243:C I *L 0
*CAP
1 10241_1 0.0001584
*RES
1 *10242:Y 10241_1 1.02667
2 10241_1 *10243:C 0
*END
*D_NET *10244 0.00023664
*CONN
*I *10245:Y O *D _3527
*I *10246:D I *L 0
*CAP
1 10244_1 0.00023664
*RES
1 *10245:Y 10244_1 2.70667
2 10244_1 *10246:D 0
*END
*D_NET *10247 0.0001584
*CONN
*I *10248:Y O *D _3528
*I *10249:C I *L 0
*CAP
1 10247_1 0.0001584
*RES
1 *10248:Y 10247_1 1.02667
2 10247_1 *10249:C 0
*END
*D_NET *10250 0.00034512
*CONN
*I *10251:Y O *D _3529
*I *10252:D I *L 0
*CAP
1 10250_1 0.00034512
*RES
1 *10251:Y 10250_1 6.25333
2 10250_1 *10252:D 0
*END
*D_NET *10253 0.0001584
*CONN
*I *10254:Y O *D _3530
*I *10255:C I *L 0
*CAP
1 10253_1 0.0001584
*RES
1 *10254:Y 10253_1 1.02667
2 10253_1 *10255:C 0
*END
*D_NET *10256 0.00020208
*CONN
*I *10257:Y O *D _3531
*I *10258:D I *L 0
*CAP
1 10256_1 0.00020208
*RES
1 *10257:Y 10256_1 4.94667
2 10256_1 *10258:D 0
*END
*D_NET *10259 8.64e-05
*CONN
*I *10260:Y O *D _3532
*I *10261:C I *L 0
*CAP
1 10259_1 8.64e-05
*RES
1 *10260:Y 10259_1 0.56
2 10259_1 *10261:C 0
*END
*D_NET *10262 0.00028056
*CONN
*I *10263:Y O *D _3533
*I *10264:D I *L 0
*CAP
1 10262_1 0.00028056
*RES
1 *10263:Y 10262_1 4.9
2 10262_1 *10264:D 0
*END
*D_NET *10265 0.0001584
*CONN
*I *10266:Y O *D _3534
*I *10267:C I *L 0
*CAP
1 10265_1 0.0001584
*RES
1 *10266:Y 10265_1 1.02667
2 10265_1 *10267:C 0
*END
*D_NET *10268 0.00018312
*CONN
*I *10269:Y O *D _3535
*I *10270:D I *L 0
*CAP
1 10268_1 0.00018312
*RES
1 *10269:Y 10268_1 2.75333
2 10268_1 *10270:D 0
*END
*D_NET *10271 0.0001584
*CONN
*I *10272:Y O *D _3537
*I *10273:C I *L 0
*CAP
1 10271_1 0.0001584
*RES
1 *10272:Y 10271_1 1.02667
2 10271_1 *10273:C 0
*END
*D_NET *10274 0.00019632
*CONN
*I *10275:Y O *D _3538
*I *10276:D I *L 0
*CAP
1 10274_1 0.00019632
*RES
1 *10275:Y 10274_1 3.45333
2 10274_1 *10276:D 0
*END
*D_NET *10277 0.0001584
*CONN
*I *10278:Y O *D _3539
*I *10279:C I *L 0
*CAP
1 10277_1 0.0001584
*RES
1 *10278:Y 10277_1 1.02667
2 10277_1 *10279:C 0
*END
*D_NET *10280 0.00017184
*CONN
*I *10281:Y O *D _3540
*I *10282:D I *L 0
*CAP
1 10280_1 0.00017184
*RES
1 *10281:Y 10280_1 3.54667
2 10280_1 *10282:D 0
*END
*D_NET *10283 0.00019584
*CONN
*I *10284:Y O *D _3541
*I *10285:C I *L 0
*CAP
1 10283_1 0.00019584
*RES
1 *10284:Y 10283_1 2.24
2 10283_1 *10285:C 0
*END
*D_NET *10286 0.00031152
*CONN
*I *10287:Y O *D _3542
*I *10288:D I *L 0
*CAP
1 10286_1 0.00031152
*RES
1 *10287:Y 10286_1 5.32
2 10286_1 *10288:D 0
*END
*D_NET *10289 0.0001584
*CONN
*I *10290:Y O *D _3543
*I *10291:C I *L 0
*CAP
1 10289_1 0.0001584
*RES
1 *10290:Y 10289_1 1.02667
2 10289_1 *10291:C 0
*END
*D_NET *10292 0.0002844
*CONN
*I *10293:Y O *D _3544
*I *10294:D I *L 0
*CAP
1 10292_1 0.0002844
*RES
1 *10293:Y 10292_1 4.9
2 10292_1 *10294:D 0
*END
*D_NET *10295 0.0001632
*CONN
*I *10296:Y O *D _3545
*I *10297:C I *L 0
*CAP
1 10295_1 0.0001632
*RES
1 *10296:Y 10295_1 1.86667
2 10295_1 *10297:C 0
*END
*D_NET *10298 0.00032184
*CONN
*I *10299:Y O *D _3546
*I *10300:D I *L 0
*CAP
1 10298_1 0.00032184
*RES
1 *10299:Y 10298_1 6.47333
2 10298_1 *10300:D 0
*END
*D_NET *10301 0.0001584
*CONN
*I *10302:Y O *D _3547
*I *10303:C I *L 0
*CAP
1 10301_1 0.0001584
*RES
1 *10302:Y 10301_1 1.02667
2 10301_1 *10303:C 0
*END
*D_NET *10304 0.00019872
*CONN
*I *10305:Y O *D _3548
*I *10306:D I *L 0
*CAP
1 10304_1 0.00019872
*RES
1 *10305:Y 10304_1 4.29333
2 10304_1 *10306:D 0
*END
*D_NET *10307 0.0001584
*CONN
*I *10308:Y O *D _3549
*I *10309:C I *L 0
*CAP
1 10307_1 0.0001584
*RES
1 *10308:Y 10307_1 1.02667
2 10307_1 *10309:C 0
*END
*D_NET *10310 0.00019872
*CONN
*I *10311:Y O *D _3550
*I *10312:D I *L 0
*CAP
1 10310_1 0.00019872
*RES
1 *10311:Y 10310_1 4.29333
2 10310_1 *10312:D 0
*END
*D_NET *10313 0.0001584
*CONN
*I *10314:Y O *D _3551
*I *10315:C I *L 0
*CAP
1 10313_1 0.0001584
*RES
1 *10314:Y 10313_1 1.02667
2 10313_1 *10315:C 0
*END
*D_NET *10316 0.00018216
*CONN
*I *10317:Y O *D _3552
*I *10318:D I *L 0
*CAP
1 10316_1 0.00018216
*RES
1 *10317:Y 10316_1 4.06
2 10316_1 *10318:D 0
*END
*D_NET *10319 0.0001584
*CONN
*I *10320:Y O *D _3553
*I *10321:C I *L 0
*CAP
1 10319_1 0.0001584
*RES
1 *10320:Y 10319_1 1.02667
2 10319_1 *10321:C 0
*END
*D_NET *10322 0.00017952
*CONN
*I *10323:Y O *D _3554
*I *10324:D I *L 0
*CAP
1 10322_1 0.00017952
*RES
1 *10323:Y 10322_1 2.98667
2 10322_1 *10324:D 0
*END
*D_NET *10325 0.0001584
*CONN
*I *10326:Y O *D _3555
*I *10327:C I *L 0
*CAP
1 10325_1 0.0001584
*RES
1 *10326:Y 10325_1 1.02667
2 10325_1 *10327:C 0
*END
*D_NET *10328 0.00016872
*CONN
*I *10329:Y O *D _3556
*I *10330:D I *L 0
*CAP
1 10328_1 0.00016872
*RES
1 *10329:Y 10328_1 2.28667
2 10328_1 *10330:D 0
*END
*D_NET *10331 0.0001584
*CONN
*I *10332:Y O *D _3557
*I *10333:C I *L 0
*CAP
1 10331_1 0.0001584
*RES
1 *10332:Y 10331_1 1.02667
2 10331_1 *10333:C 0
*END
*D_NET *10334 0.00023616
*CONN
*I *10335:Y O *D _3558
*I *10336:D I *L 0
*CAP
1 10334_1 0.00023616
*RES
1 *10335:Y 10334_1 5.22667
2 10334_1 *10336:D 0
*END
*D_NET *10337 0.0001584
*CONN
*I *10338:Y O *D _3559
*I *10339:C I *L 0
*CAP
1 10337_1 0.0001584
*RES
1 *10338:Y 10337_1 1.02667
2 10337_1 *10339:C 0
*END
*D_NET *10340 0.00012816
*CONN
*I *10341:Y O *D _3560
*I *10342:D I *L 0
*CAP
1 10340_1 0.00012816
*RES
1 *10341:Y 10340_1 2.89333
2 10340_1 *10342:D 0
*END
*D_NET *10343 0.0001584
*CONN
*I *10344:Y O *D _3561
*I *10345:C I *L 0
*CAP
1 10343_1 0.0001584
*RES
1 *10344:Y 10343_1 1.02667
2 10343_1 *10345:C 0
*END
*D_NET *10346 0.00023592
*CONN
*I *10347:Y O *D _3562
*I *10348:D I *L 0
*CAP
1 10346_1 0.00023592
*RES
1 *10347:Y 10346_1 5.55333
2 10346_1 *10348:D 0
*END
*D_NET *10349 0.00018336
*CONN
*I *10350:Y O *D _3563
*I *10351:C I *L 0
*CAP
1 10349_1 0.00018336
*RES
1 *10350:Y 10349_1 2.42667
2 10349_1 *10351:C 0
*END
*D_NET *10352 0.00026376
*CONN
*I *10353:Y O *D _3564
*I *10354:D I *L 0
*CAP
1 10352_1 0.00026376
*RES
1 *10353:Y 10352_1 4.99333
2 10352_1 *10354:D 0
*END
*D_NET *10355 0.00021024
*CONN
*I *10356:Y O *D _3565
*I *10357:C I *L 0
*CAP
1 10355_1 0.00021024
*RES
1 *10356:Y 10355_1 3.17333
2 10355_1 *10357:C 0
*END
*D_NET *10358 0.0001008
*CONN
*I *10359:Y O *D _3566
*I *10360:D I *L 0
*CAP
1 10358_1 0.0001008
*RES
1 *10359:Y 10358_1 2.8
2 10358_1 *10360:D 0
*END
*D_NET *10361 0.0001584
*CONN
*I *10362:Y O *D _3567
*I *10363:C I *L 0
*CAP
1 10361_1 0.0001584
*RES
1 *10362:Y 10361_1 1.02667
2 10361_1 *10363:C 0
*END
*D_NET *10364 0.00017184
*CONN
*I *10365:Y O *D _3568
*I *10366:D I *L 0
*CAP
1 10364_1 0.00017184
*RES
1 *10365:Y 10364_1 3.54667
2 10364_1 *10366:D 0
*END
*D_NET *10367 0.00022344
*CONN
*I *10368:Y O *D _3569
*I *10369:C I *L 0
*CAP
1 10367_1 0.00022344
*RES
1 *10368:Y 10367_1 3.87333
2 10367_1 *10369:C 0
*END
*D_NET *10370 6.72e-05
*CONN
*I *10371:Y O *D _3570
*I *10372:D I *L 0
*CAP
1 10370_1 6.72e-05
*RES
1 *10371:Y 10370_1 1.86667
2 10370_1 *10372:D 0
*END
*D_NET *10373 0.00019056
*CONN
*I *10374:Y O *D _3571
*I *10375:C I *L 0
*CAP
1 10373_1 0.00019056
*RES
1 *10374:Y 10373_1 2.29333
2 10373_1 *10375:C 0
*END
*D_NET *10376 0.00052176
*CONN
*I *10377:Y O *D _3572
*I *10378:D I *L 0
*CAP
1 10376_1 0.00052176
*RES
1 *10377:Y 10376_1 5.98667
2 10376_1 *10378:D 0
*END
*D_NET *10379 0.0002412
*CONN
*I *10380:Y O *D _3573
*I *10381:C I *L 0
*CAP
1 10379_1 0.0002412
*RES
1 *10380:Y 10379_1 2.47333
2 10379_1 *10381:C 0
*END
*D_NET *10382 0.00015168
*CONN
*I *10383:Y O *D _3574
*I *10384:D I *L 0
*CAP
1 10382_1 0.00015168
*RES
1 *10383:Y 10382_1 2.98667
2 10382_1 *10384:D 0
*END
*D_NET *10385 0.0001152
*CONN
*I *10386:Y O *D _3575
*I *10387:C I *L 0
*CAP
1 10385_1 0.0001152
*RES
1 *10386:Y 10385_1 1.86667
2 10385_1 *10387:C 0
*END
*D_NET *10388 0.0001836
*CONN
*I *10389:Y O *D _3576
*I *10390:D I *L 0
*CAP
1 10388_1 0.0001836
*RES
1 *10389:Y 10388_1 2.1
2 10388_1 *10390:D 0
*END
*D_NET *10391 0.0001584
*CONN
*I *10392:Y O *D _3577
*I *10393:C I *L 0
*CAP
1 10391_1 0.0001584
*RES
1 *10392:Y 10391_1 1.02667
2 10391_1 *10393:C 0
*END
*D_NET *10394 0.00025344
*CONN
*I *10395:Y O *D _3578
*I *10396:D I *L 0
*CAP
1 10394_1 0.00025344
*RES
1 *10395:Y 10394_1 4.48
2 10394_1 *10396:D 0
*END
*D_NET *10397 0.0001584
*CONN
*I *10398:Y O *D _3579
*I *10399:C I *L 0
*CAP
1 10397_1 0.0001584
*RES
1 *10398:Y 10397_1 1.02667
2 10397_1 *10399:C 0
*END
*D_NET *10400 0.0002844
*CONN
*I *10401:Y O *D _3580
*I *10402:D I *L 0
*CAP
1 10400_1 0.0002844
*RES
1 *10401:Y 10400_1 4.9
2 10400_1 *10402:D 0
*END
*D_NET *10403 4.032e-05
*CONN
*I *10404:Y O *D _3581
*I *10405:C I *L 0
*CAP
1 10403_1 4.032e-05
*RES
1 *10404:Y 10403_1 1.12
2 10403_1 *10405:C 0
*END
*D_NET *10406 0.00023016
*CONN
*I *10407:Y O *D _3582
*I *10408:D I *L 0
*CAP
1 10406_1 0.00023016
*RES
1 *10407:Y 10406_1 4.06
2 10406_1 *10408:D 0
*END
*D_NET *10409 0.0001584
*CONN
*I *10410:Y O *D _3583
*I *10411:C I *L 0
*CAP
1 10409_1 0.0001584
*RES
1 *10410:Y 10409_1 1.02667
2 10409_1 *10411:C 0
*END
*D_NET *10412 0.00022992
*CONN
*I *10413:Y O *D _3584
*I *10414:D I *L 0
*CAP
1 10412_1 0.00022992
*RES
1 *10413:Y 10412_1 4.38667
2 10412_1 *10414:D 0
*END
*D_NET *10415 0.0001584
*CONN
*I *10416:Y O *D _3585
*I *10417:C I *L 0
*CAP
1 10415_1 0.0001584
*RES
1 *10416:Y 10415_1 1.02667
2 10415_1 *10417:C 0
*END
*D_NET *10418 0.00017184
*CONN
*I *10419:Y O *D _3586
*I *10420:D I *L 0
*CAP
1 10418_1 0.00017184
*RES
1 *10419:Y 10418_1 3.54667
2 10418_1 *10420:D 0
*END
*D_NET *10421 0.0001584
*CONN
*I *10422:Y O *D _3587
*I *10423:C I *L 0
*CAP
1 10421_1 0.0001584
*RES
1 *10422:Y 10421_1 1.02667
2 10421_1 *10423:C 0
*END
*D_NET *10424 0.00018528
*CONN
*I *10425:Y O *D _3588
*I *10426:D I *L 0
*CAP
1 10424_1 0.00018528
*RES
1 *10425:Y 10424_1 3.92
2 10424_1 *10426:D 0
*END
*D_NET *10427 0.00019008
*CONN
*I *10428:Y O *D _3589
*I *10429:C I *L 0
*CAP
1 10427_1 0.00019008
*RES
1 *10428:Y 10427_1 2.61333
2 10427_1 *10429:C 0
*END
*D_NET *10430 0.00016872
*CONN
*I *10431:Y O *D _3590
*I *10432:D I *L 0
*CAP
1 10430_1 0.00016872
*RES
1 *10431:Y 10430_1 3.68667
2 10430_1 *10432:D 0
*END
*D_NET *10433 0.0001584
*CONN
*I *10434:Y O *D _3591
*I *10435:C I *L 0
*CAP
1 10433_1 0.0001584
*RES
1 *10434:Y 10433_1 1.02667
2 10433_1 *10435:C 0
*END
*D_NET *10436 0.00017184
*CONN
*I *10437:Y O *D _3592
*I *10438:D I *L 0
*CAP
1 10436_1 0.00017184
*RES
1 *10437:Y 10436_1 3.54667
2 10436_1 *10438:D 0
*END
*D_NET *10439 0.0001584
*CONN
*I *10440:Y O *D _3593
*I *10441:C I *L 0
*CAP
1 10439_1 0.0001584
*RES
1 *10440:Y 10439_1 1.02667
2 10439_1 *10441:C 0
*END
*D_NET *10442 0.00037128
*CONN
*I *10443:Y O *D _3594
*I *10444:D I *L 0
*CAP
1 10442_1 0.00037128
*RES
1 *10443:Y 10442_1 5.18
2 10442_1 *10444:D 0
*END
*D_NET *10445 0.0001584
*CONN
*I *10446:Y O *D _3595
*I *10447:C I *L 0
*CAP
1 10445_1 0.0001584
*RES
1 *10446:Y 10445_1 1.02667
2 10445_1 *10447:C 0
*END
*D_NET *10448 0.00019872
*CONN
*I *10449:Y O *D _3596
*I *10450:D I *L 0
*CAP
1 10448_1 0.00019872
*RES
1 *10449:Y 10448_1 4.29333
2 10448_1 *10450:D 0
*END
*D_NET *10451 0.00019584
*CONN
*I *10452:Y O *D _3597
*I *10453:C I *L 0
*CAP
1 10451_1 0.00019584
*RES
1 *10452:Y 10451_1 2.24
2 10451_1 *10453:C 0
*END
*D_NET *10454 0.0001008
*CONN
*I *10455:Y O *D _3598
*I *10456:D I *L 0
*CAP
1 10454_1 0.0001008
*RES
1 *10455:Y 10454_1 2.8
2 10454_1 *10456:D 0
*END
*D_NET *10457 0.0002004
*CONN
*I *10458:Y O *D _3599
*I *10459:C I *L 0
*CAP
1 10457_1 0.0002004
*RES
1 *10458:Y 10457_1 2.00667
2 10457_1 *10459:C 0
*END
*D_NET *10460 0.0001416
*CONN
*I *10461:Y O *D _3600
*I *10462:D I *L 0
*CAP
1 10460_1 0.0001416
*RES
1 *10461:Y 10460_1 3.26667
2 10460_1 *10462:D 0
*END
*D_NET *10463 0.00013104
*CONN
*I *10464:Y O *D _3601
*I *10465:B I *L 0
*CAP
1 10463_1 0.00013104
*RES
1 *10464:Y 10463_1 1.21333
2 10463_1 *10465:B 0
*END
*D_NET *10466 0.0001584
*CONN
*I *10467:Y O *D _3604
*I *10468:C I *L 0
*CAP
1 10466_1 0.0001584
*RES
1 *10467:Y 10466_1 1.02667
2 10466_1 *10468:C 0
*END
*D_NET *10469 0.00018288
*CONN
*I *10470:Y O *D _3605
*I *10471:D I *L 0
*CAP
1 10469_1 0.00018288
*RES
1 *10470:Y 10469_1 3.08
2 10469_1 *10471:D 0
*END
*D_NET *10472 0.0001584
*CONN
*I *10473:Y O *D _3606
*I *10474:C I *L 0
*CAP
1 10472_1 0.0001584
*RES
1 *10473:Y 10472_1 1.02667
2 10472_1 *10474:C 0
*END
*D_NET *10475 0.00015456
*CONN
*I *10476:Y O *D _3607
*I *10477:D I *L 0
*CAP
1 10475_1 0.00015456
*RES
1 *10476:Y 10475_1 4.29333
2 10475_1 *10477:D 0
*END
*D_NET *10478 0.00021696
*CONN
*I *10479:Y O *D _3608
*I *10480:C I *L 0
*CAP
1 10478_1 0.00021696
*RES
1 *10479:Y 10478_1 3.36
2 10478_1 *10480:C 0
*END
*D_NET *10481 0.00016848
*CONN
*I *10482:Y O *D _3609
*I *10483:D I *L 0
*CAP
1 10481_1 0.00016848
*RES
1 *10482:Y 10481_1 4.01333
2 10481_1 *10483:D 0
*END
*D_NET *10484 0.0001584
*CONN
*I *10485:Y O *D _3610
*I *10486:C I *L 0
*CAP
1 10484_1 0.0001584
*RES
1 *10485:Y 10484_1 1.02667
2 10484_1 *10486:C 0
*END
*D_NET *10487 0.00024312
*CONN
*I *10488:Y O *D _3611
*I *10489:D I *L 0
*CAP
1 10487_1 0.00024312
*RES
1 *10488:Y 10487_1 5.08667
2 10487_1 *10489:D 0
*END
*D_NET *10490 0.0001584
*CONN
*I *10491:Y O *D _3612
*I *10492:C I *L 0
*CAP
1 10490_1 0.0001584
*RES
1 *10491:Y 10490_1 1.02667
2 10490_1 *10492:C 0
*END
*D_NET *10493 0.00012768
*CONN
*I *10494:Y O *D _3613
*I *10495:D I *L 0
*CAP
1 10493_1 0.00012768
*RES
1 *10494:Y 10493_1 3.54667
2 10493_1 *10495:D 0
*END
*D_NET *10496 0.0001584
*CONN
*I *10497:Y O *D _3614
*I *10498:C I *L 0
*CAP
1 10496_1 0.0001584
*RES
1 *10497:Y 10496_1 1.02667
2 10496_1 *10498:C 0
*END
*D_NET *10499 0.00015456
*CONN
*I *10500:Y O *D _3615
*I *10501:D I *L 0
*CAP
1 10499_1 0.00015456
*RES
1 *10500:Y 10499_1 4.29333
2 10499_1 *10501:D 0
*END
*D_NET *10502 0.0001584
*CONN
*I *10503:Y O *D _3616
*I *10504:C I *L 0
*CAP
1 10502_1 0.0001584
*RES
1 *10503:Y 10502_1 1.02667
2 10502_1 *10504:C 0
*END
*D_NET *10505 0.00012768
*CONN
*I *10506:Y O *D _3617
*I *10507:D I *L 0
*CAP
1 10505_1 0.00012768
*RES
1 *10506:Y 10505_1 3.54667
2 10505_1 *10507:D 0
*END
*D_NET *10508 0.0001584
*CONN
*I *10509:Y O *D _3618
*I *10510:C I *L 0
*CAP
1 10508_1 0.0001584
*RES
1 *10509:Y 10508_1 1.02667
2 10508_1 *10510:C 0
*END
*D_NET *10511 0.00037104
*CONN
*I *10512:Y O *D _3619
*I *10513:D I *L 0
*CAP
1 10511_1 0.00037104
*RES
1 *10512:Y 10511_1 8.30667
2 10511_1 *10513:D 0
*END
*D_NET *10514 0.00021696
*CONN
*I *10515:Y O *D _3620
*I *10516:C I *L 0
*CAP
1 10514_1 0.00021696
*RES
1 *10515:Y 10514_1 3.36
2 10514_1 *10516:C 0
*END
*D_NET *10517 0.00019248
*CONN
*I *10518:Y O *D _3621
*I *10519:D I *L 0
*CAP
1 10517_1 0.00019248
*RES
1 *10518:Y 10517_1 3.45333
2 10517_1 *10519:D 0
*END
*D_NET *10520 0.0001584
*CONN
*I *10521:Y O *D _3622
*I *10522:C I *L 0
*CAP
1 10520_1 0.0001584
*RES
1 *10521:Y 10520_1 1.02667
2 10520_1 *10522:C 0
*END
*D_NET *10523 0.0001224
*CONN
*I *10524:Y O *D _3623
*I *10525:D I *L 0
*CAP
1 10523_1 0.0001224
*RES
1 *10524:Y 10523_1 1.4
2 10523_1 *10525:D 0
*END
*D_NET *10526 0.0001584
*CONN
*I *10527:Y O *D _3624
*I *10528:C I *L 0
*CAP
1 10526_1 0.0001584
*RES
1 *10527:Y 10526_1 1.02667
2 10526_1 *10528:C 0
*END
*D_NET *10529 0.00012768
*CONN
*I *10530:Y O *D _3625
*I *10531:D I *L 0
*CAP
1 10529_1 0.00012768
*RES
1 *10530:Y 10529_1 3.54667
2 10529_1 *10531:D 0
*END
*D_NET *10532 0.00042768
*CONN
*I *10533:Y O *D _3626
*I *10534:C I *L 0
*CAP
1 10532_1 0.00042768
*RES
1 *10533:Y 10532_1 5.88
2 10532_1 *10534:C 0
*END
*D_NET *10535 0.00012768
*CONN
*I *10536:Y O *D _3627
*I *10537:D I *L 0
*CAP
1 10535_1 0.00012768
*RES
1 *10536:Y 10535_1 3.54667
2 10535_1 *10537:D 0
*END
*D_NET *10538 0.0001584
*CONN
*I *10539:Y O *D _3628
*I *10540:C I *L 0
*CAP
1 10538_1 0.0001584
*RES
1 *10539:Y 10538_1 1.02667
2 10538_1 *10540:C 0
*END
*D_NET *10541 0.00026352
*CONN
*I *10542:Y O *D _3629
*I *10543:D I *L 0
*CAP
1 10541_1 0.00026352
*RES
1 *10542:Y 10541_1 5.32
2 10541_1 *10543:D 0
*END
*D_NET *10544 8.64e-05
*CONN
*I *10545:Y O *D _3630
*I *10546:C I *L 0
*CAP
1 10544_1 8.64e-05
*RES
1 *10545:Y 10544_1 0.56
2 10544_1 *10546:C 0
*END
*D_NET *10547 0.00047256
*CONN
*I *10548:Y O *D _3631
*I *10549:D I *L 0
*CAP
1 10547_1 0.00047256
*RES
1 *10548:Y 10547_1 6.95333
2 10547_1 *10549:D 0
*END
*D_NET *10550 0.0001584
*CONN
*I *10551:Y O *D _3632
*I *10552:C I *L 0
*CAP
1 10550_1 0.0001584
*RES
1 *10551:Y 10550_1 1.02667
2 10550_1 *10552:C 0
*END
*D_NET *10553 0.00021552
*CONN
*I *10554:Y O *D _3633
*I *10555:D I *L 0
*CAP
1 10553_1 0.00021552
*RES
1 *10554:Y 10553_1 5.32
2 10553_1 *10555:D 0
*END
*D_NET *10556 0.0001584
*CONN
*I *10557:Y O *D _3634
*I *10558:C I *L 0
*CAP
1 10556_1 0.0001584
*RES
1 *10557:Y 10556_1 1.02667
2 10556_1 *10558:C 0
*END
*D_NET *10559 0.00012768
*CONN
*I *10560:Y O *D _3635
*I *10561:D I *L 0
*CAP
1 10559_1 0.00012768
*RES
1 *10560:Y 10559_1 3.54667
2 10559_1 *10561:D 0
*END
*D_NET *10562 0.0001584
*CONN
*I *10563:Y O *D _3636
*I *10564:C I *L 0
*CAP
1 10562_1 0.0001584
*RES
1 *10563:Y 10562_1 1.02667
2 10562_1 *10564:C 0
*END
*D_NET *10565 0.00012768
*CONN
*I *10566:Y O *D _3637
*I *10567:D I *L 0
*CAP
1 10565_1 0.00012768
*RES
1 *10566:Y 10565_1 3.54667
2 10565_1 *10567:D 0
*END
*D_NET *10568 0.0001584
*CONN
*I *10569:Y O *D _3638
*I *10570:C I *L 0
*CAP
1 10568_1 0.0001584
*RES
1 *10569:Y 10568_1 1.02667
2 10568_1 *10570:C 0
*END
*D_NET *10571 0.00045192
*CONN
*I *10572:Y O *D _3639
*I *10573:D I *L 0
*CAP
1 10571_1 0.00045192
*RES
1 *10572:Y 10571_1 10.22
2 10571_1 *10573:D 0
*END
*D_NET *10574 0.0001632
*CONN
*I *10575:Y O *D _3640
*I *10576:C I *L 0
*CAP
1 10574_1 0.0001632
*RES
1 *10575:Y 10574_1 1.86667
2 10574_1 *10576:C 0
*END
*D_NET *10577 0.00030552
*CONN
*I *10578:Y O *D _3641
*I *10579:D I *L 0
*CAP
1 10577_1 0.00030552
*RES
1 *10578:Y 10577_1 4.15333
2 10577_1 *10579:D 0
*END
*D_NET *10580 0.0001584
*CONN
*I *10581:Y O *D _3642
*I *10582:C I *L 0
*CAP
1 10580_1 0.0001584
*RES
1 *10581:Y 10580_1 1.02667
2 10580_1 *10582:C 0
*END
*D_NET *10583 0.00014976
*CONN
*I *10584:Y O *D _3643
*I *10585:D I *L 0
*CAP
1 10583_1 0.00014976
*RES
1 *10584:Y 10583_1 3.56
2 10583_1 *10585:D 0
*END
*D_NET *10586 0.0001584
*CONN
*I *10587:Y O *D _3644
*I *10588:C I *L 0
*CAP
1 10586_1 0.0001584
*RES
1 *10587:Y 10586_1 1.02667
2 10586_1 *10588:C 0
*END
*D_NET *10589 0.00021624
*CONN
*I *10590:Y O *D _3645
*I *10591:D I *L 0
*CAP
1 10589_1 0.00021624
*RES
1 *10590:Y 10589_1 2.47333
2 10589_1 *10591:D 0
*END
*D_NET *10592 0.0002736
*CONN
*I *10593:Y O *D _3646
*I *10594:C I *L 0
*CAP
1 10592_1 0.0002736
*RES
1 *10593:Y 10592_1 1.77333
2 10592_1 *10594:C 0
*END
*D_NET *10595 0.00023664
*CONN
*I *10596:Y O *D _3647
*I *10597:D I *L 0
*CAP
1 10595_1 0.00023664
*RES
1 *10596:Y 10595_1 2.70667
2 10595_1 *10597:D 0
*END
*D_NET *10598 0.0001584
*CONN
*I *10599:Y O *D _3648
*I *10600:C I *L 0
*CAP
1 10598_1 0.0001584
*RES
1 *10599:Y 10598_1 1.02667
2 10598_1 *10600:C 0
*END
*D_NET *10601 0.00012768
*CONN
*I *10602:Y O *D _3649
*I *10603:D I *L 0
*CAP
1 10601_1 0.00012768
*RES
1 *10602:Y 10601_1 3.54667
2 10601_1 *10603:D 0
*END
*D_NET *10604 0.0001584
*CONN
*I *10605:Y O *D _3650
*I *10606:C I *L 0
*CAP
1 10604_1 0.0001584
*RES
1 *10605:Y 10604_1 1.02667
2 10604_1 *10606:C 0
*END
*D_NET *10607 0.00012768
*CONN
*I *10608:Y O *D _3651
*I *10609:D I *L 0
*CAP
1 10607_1 0.00012768
*RES
1 *10608:Y 10607_1 3.54667
2 10607_1 *10609:D 0
*END
*D_NET *10610 0.00025056
*CONN
*I *10611:Y O *D _3652
*I *10612:C I *L 0
*CAP
1 10610_1 0.00025056
*RES
1 *10611:Y 10610_1 4.29333
2 10610_1 *10612:C 0
*END
*D_NET *10613 0.00019248
*CONN
*I *10614:Y O *D _3653
*I *10615:D I *L 0
*CAP
1 10613_1 0.00019248
*RES
1 *10614:Y 10613_1 3.45333
2 10613_1 *10615:D 0
*END
*D_NET *10616 0.0001584
*CONN
*I *10617:Y O *D _3654
*I *10618:C I *L 0
*CAP
1 10616_1 0.0001584
*RES
1 *10617:Y 10616_1 1.02667
2 10616_1 *10618:C 0
*END
*D_NET *10619 0.00022992
*CONN
*I *10620:Y O *D _3655
*I *10621:D I *L 0
*CAP
1 10619_1 0.00022992
*RES
1 *10620:Y 10619_1 4.38667
2 10619_1 *10621:D 0
*END
*D_NET *10622 0.00019008
*CONN
*I *10623:Y O *D _3656
*I *10624:C I *L 0
*CAP
1 10622_1 0.00019008
*RES
1 *10623:Y 10622_1 2.61333
2 10622_1 *10624:C 0
*END
*D_NET *10625 0.00016272
*CONN
*I *10626:Y O *D _3657
*I *10627:D I *L 0
*CAP
1 10625_1 0.00016272
*RES
1 *10626:Y 10625_1 2.52
2 10625_1 *10627:D 0
*END
*D_NET *10628 0.00059328
*CONN
*I *10629:Y O *D _3658
*I *10630:C I *L 0
*CAP
1 10628_1 0.00059328
*RES
1 *10629:Y 10628_1 13.8133
2 10628_1 *10630:C 0
*END
*D_NET *10631 0.00037944
*CONN
*I *10632:Y O *D _3659
*I *10633:D I *L 0
*CAP
1 10631_1 0.00037944
*RES
1 *10632:Y 10631_1 4.34
2 10631_1 *10633:D 0
*END
*D_NET *10634 0.0002412
*CONN
*I *10635:Y O *D _3660
*I *10636:C I *L 0
*CAP
1 10634_1 0.0002412
*RES
1 *10635:Y 10634_1 2.47333
2 10634_1 *10636:C 0
*END
*D_NET *10637 0.00027096
*CONN
*I *10638:Y O *D _3661
*I *10639:D I *L 0
*CAP
1 10637_1 0.00027096
*RES
1 *10638:Y 10637_1 4.52667
2 10637_1 *10639:D 0
*END
*D_NET *10640 0.00014208
*CONN
*I *10641:Y O *D _3662
*I *10642:C I *L 0
*CAP
1 10640_1 0.00014208
*RES
1 *10641:Y 10640_1 2.61333
2 10640_1 *10642:C 0
*END
*D_NET *10643 0.00021048
*CONN
*I *10644:Y O *D _3663
*I *10645:D I *L 0
*CAP
1 10643_1 0.00021048
*RES
1 *10644:Y 10643_1 2.84667
2 10643_1 *10645:D 0
*END
*D_NET *10646 8.64e-05
*CONN
*I *10647:Y O *D _3664
*I *10648:C I *L 0
*CAP
1 10646_1 8.64e-05
*RES
1 *10647:Y 10646_1 0.56
2 10646_1 *10648:C 0
*END
*D_NET *10649 0.00016848
*CONN
*I *10650:Y O *D _3665
*I *10651:D I *L 0
*CAP
1 10649_1 0.00016848
*RES
1 *10650:Y 10649_1 4.01333
2 10649_1 *10651:D 0
*END
*D_NET *10652 0.0001584
*CONN
*I *10653:Y O *D _3666
*I *10654:C I *L 0
*CAP
1 10652_1 0.0001584
*RES
1 *10653:Y 10652_1 1.02667
2 10652_1 *10654:C 0
*END
*D_NET *10655 8.064e-05
*CONN
*I *10656:Y O *D _3667
*I *10657:D I *L 0
*CAP
1 10655_1 8.064e-05
*RES
1 *10656:Y 10655_1 2.24
2 10655_1 *10657:D 0
*END
*D_NET *10658 4.032e-05
*CONN
*I *10659:Y O *D _3669
*I *10660:C I *L 0
*CAP
1 10658_1 4.032e-05
*RES
1 *10659:Y 10658_1 1.12
2 10658_1 *10660:C 0
*END
*D_NET *10661 0.00022128
*CONN
*I *10662:Y O *D _3670
*I *10663:D I *L 0
*CAP
1 10661_1 0.00022128
*RES
1 *10662:Y 10661_1 3.64
2 10661_1 *10663:D 0
*END
*D_NET *10664 0.0001584
*CONN
*I *10665:Y O *D _3671
*I *10666:C I *L 0
*CAP
1 10664_1 0.0001584
*RES
1 *10665:Y 10664_1 1.02667
2 10664_1 *10666:C 0
*END
*D_NET *10667 0.00017184
*CONN
*I *10668:Y O *D _3672
*I *10669:D I *L 0
*CAP
1 10667_1 0.00017184
*RES
1 *10668:Y 10667_1 3.54667
2 10667_1 *10669:D 0
*END
*D_NET *10670 0.0001584
*CONN
*I *10671:Y O *D _3673
*I *10672:C I *L 0
*CAP
1 10670_1 0.0001584
*RES
1 *10671:Y 10670_1 1.02667
2 10670_1 *10672:C 0
*END
*D_NET *10673 0.00026424
*CONN
*I *10674:Y O *D _3674
*I *10675:D I *L 0
*CAP
1 10673_1 0.00026424
*RES
1 *10674:Y 10673_1 4.34
2 10673_1 *10675:D 0
*END
*D_NET *10676 0.0001584
*CONN
*I *10677:Y O *D _3675
*I *10678:C I *L 0
*CAP
1 10676_1 0.0001584
*RES
1 *10677:Y 10676_1 1.02667
2 10676_1 *10678:C 0
*END
*D_NET *10679 0.00017184
*CONN
*I *10680:Y O *D _3676
*I *10681:D I *L 0
*CAP
1 10679_1 0.00017184
*RES
1 *10680:Y 10679_1 3.54667
2 10679_1 *10681:D 0
*END
*D_NET *10682 0.00218448
*CONN
*I *10683:Y O *D _3677
*I *10684:C I *L 0
*CAP
1 10682_1 0.00218448
*RES
1 *10683:Y 10682_1 26.28
2 10682_1 *10684:C 0
*END
*D_NET *10685 0.001782
*CONN
*I *10686:Y O *D _3678
*I *10687:D I *L 0
*CAP
1 10685_1 0.001782
*RES
1 *10686:Y 10685_1 20.9667
2 10685_1 *10687:D 0
*END
*D_NET *10688 0.00036264
*CONN
*I *10689:Y O *D _3679
*I *10690:C I *L 0
*CAP
1 10688_1 0.00036264
*RES
1 *10689:Y 10688_1 5.18
2 10688_1 *10690:C 0
*END
*D_NET *10691 0.00016872
*CONN
*I *10692:Y O *D _3680
*I *10693:D I *L 0
*CAP
1 10691_1 0.00016872
*RES
1 *10692:Y 10691_1 3.68667
2 10691_1 *10693:D 0
*END
*D_NET *10694 0.0001584
*CONN
*I *10695:Y O *D _3681
*I *10696:C I *L 0
*CAP
1 10694_1 0.0001584
*RES
1 *10695:Y 10694_1 1.02667
2 10694_1 *10696:C 0
*END
*D_NET *10697 0.0001824
*CONN
*I *10698:Y O *D _3682
*I *10699:D I *L 0
*CAP
1 10697_1 0.0001824
*RES
1 *10698:Y 10697_1 3.73333
2 10697_1 *10699:D 0
*END
*D_NET *10700 0.0001584
*CONN
*I *10701:Y O *D _3683
*I *10702:C I *L 0
*CAP
1 10700_1 0.0001584
*RES
1 *10701:Y 10700_1 1.02667
2 10700_1 *10702:C 0
*END
*D_NET *10703 0.0001764
*CONN
*I *10704:Y O *D _3684
*I *10705:D I *L 0
*CAP
1 10703_1 0.0001764
*RES
1 *10704:Y 10703_1 2.56667
2 10703_1 *10705:D 0
*END
*D_NET *10706 0.0001584
*CONN
*I *10707:Y O *D _3685
*I *10708:C I *L 0
*CAP
1 10706_1 0.0001584
*RES
1 *10707:Y 10706_1 1.02667
2 10706_1 *10708:C 0
*END
*D_NET *10709 0.00017184
*CONN
*I *10710:Y O *D _3686
*I *10711:D I *L 0
*CAP
1 10709_1 0.00017184
*RES
1 *10710:Y 10709_1 3.54667
2 10709_1 *10711:D 0
*END
*D_NET *10712 0.0001584
*CONN
*I *10713:Y O *D _3687
*I *10714:C I *L 0
*CAP
1 10712_1 0.0001584
*RES
1 *10713:Y 10712_1 1.02667
2 10712_1 *10714:C 0
*END
*D_NET *10715 0.00017184
*CONN
*I *10716:Y O *D _3688
*I *10717:D I *L 0
*CAP
1 10715_1 0.00017184
*RES
1 *10716:Y 10715_1 3.54667
2 10715_1 *10717:D 0
*END
*D_NET *10718 4.032e-05
*CONN
*I *10719:Y O *D _3689
*I *10720:C I *L 0
*CAP
1 10718_1 4.032e-05
*RES
1 *10719:Y 10718_1 1.12
2 10718_1 *10720:C 0
*END
*D_NET *10721 0.0001764
*CONN
*I *10722:Y O *D _3690
*I *10723:D I *L 0
*CAP
1 10721_1 0.0001764
*RES
1 *10722:Y 10721_1 2.56667
2 10721_1 *10723:D 0
*END
*D_NET *10724 0.0001584
*CONN
*I *10725:Y O *D _3691
*I *10726:C I *L 0
*CAP
1 10724_1 0.0001584
*RES
1 *10725:Y 10724_1 1.02667
2 10724_1 *10726:C 0
*END
*D_NET *10727 0.00011424
*CONN
*I *10728:Y O *D _3692
*I *10729:D I *L 0
*CAP
1 10727_1 0.00011424
*RES
1 *10728:Y 10727_1 3.17333
2 10727_1 *10729:D 0
*END
*D_NET *10730 0.00021048
*CONN
*I *10731:Y O *D _3693
*I *10732:C I *L 0
*CAP
1 10730_1 0.00021048
*RES
1 *10731:Y 10730_1 2.84667
2 10730_1 *10732:C 0
*END
*D_NET *10733 0.00032592
*CONN
*I *10734:Y O *D _3694
*I *10735:D I *L 0
*CAP
1 10733_1 0.00032592
*RES
1 *10734:Y 10733_1 4.38667
2 10733_1 *10735:D 0
*END
*D_NET *10736 4.032e-05
*CONN
*I *10737:Y O *D _3695
*I *10738:C I *L 0
*CAP
1 10736_1 4.032e-05
*RES
1 *10737:Y 10736_1 1.12
2 10736_1 *10738:C 0
*END
*D_NET *10739 0.00059376
*CONN
*I *10740:Y O *D _3696
*I *10741:D I *L 0
*CAP
1 10739_1 0.00059376
*RES
1 *10740:Y 10739_1 9.98667
2 10739_1 *10741:D 0
*END
*D_NET *10742 0.0001584
*CONN
*I *10743:Y O *D _3697
*I *10744:C I *L 0
*CAP
1 10742_1 0.0001584
*RES
1 *10743:Y 10742_1 1.02667
2 10742_1 *10744:C 0
*END
*D_NET *10745 0.00023592
*CONN
*I *10746:Y O *D _3698
*I *10747:D I *L 0
*CAP
1 10745_1 0.00023592
*RES
1 *10746:Y 10745_1 5.55333
2 10745_1 *10747:D 0
*END
*D_NET *10748 0.0001584
*CONN
*I *10749:Y O *D _3699
*I *10750:C I *L 0
*CAP
1 10748_1 0.0001584
*RES
1 *10749:Y 10748_1 1.02667
2 10748_1 *10750:C 0
*END
*D_NET *10751 0.00019872
*CONN
*I *10752:Y O *D _3700
*I *10753:D I *L 0
*CAP
1 10751_1 0.00019872
*RES
1 *10752:Y 10751_1 4.29333
2 10751_1 *10753:D 0
*END
*D_NET *10754 4.032e-05
*CONN
*I *10755:Y O *D _3701
*I *10756:C I *L 0
*CAP
1 10754_1 4.032e-05
*RES
1 *10755:Y 10754_1 1.12
2 10754_1 *10756:C 0
*END
*D_NET *10757 0.00019248
*CONN
*I *10758:Y O *D _3702
*I *10759:D I *L 0
*CAP
1 10757_1 0.00019248
*RES
1 *10758:Y 10757_1 3.45333
2 10757_1 *10759:D 0
*END
*D_NET *10760 0.0001584
*CONN
*I *10761:Y O *D _3703
*I *10762:C I *L 0
*CAP
1 10760_1 0.0001584
*RES
1 *10761:Y 10760_1 1.02667
2 10760_1 *10762:C 0
*END
*D_NET *10763 0.00016296
*CONN
*I *10764:Y O *D _3704
*I *10765:D I *L 0
*CAP
1 10763_1 0.00016296
*RES
1 *10764:Y 10763_1 2.19333
2 10763_1 *10765:D 0
*END
*D_NET *10766 0.0001584
*CONN
*I *10767:Y O *D _3705
*I *10768:C I *L 0
*CAP
1 10766_1 0.0001584
*RES
1 *10767:Y 10766_1 1.02667
2 10766_1 *10768:C 0
*END
*D_NET *10769 0.00016944
*CONN
*I *10770:Y O *D _3706
*I *10771:D I *L 0
*CAP
1 10769_1 0.00016944
*RES
1 *10770:Y 10769_1 2.70667
2 10769_1 *10771:D 0
*END
*D_NET *10772 0.0001584
*CONN
*I *10773:Y O *D _3707
*I *10774:C I *L 0
*CAP
1 10772_1 0.0001584
*RES
1 *10773:Y 10772_1 1.02667
2 10772_1 *10774:C 0
*END
*D_NET *10775 0.00017544
*CONN
*I *10776:Y O *D _3708
*I *10777:D I *L 0
*CAP
1 10775_1 0.00017544
*RES
1 *10776:Y 10775_1 2.00667
2 10775_1 *10777:D 0
*END
*D_NET *10778 0.0001584
*CONN
*I *10779:Y O *D _3709
*I *10780:C I *L 0
*CAP
1 10778_1 0.0001584
*RES
1 *10779:Y 10778_1 1.02667
2 10778_1 *10780:C 0
*END
*D_NET *10781 0.00018216
*CONN
*I *10782:Y O *D _3710
*I *10783:D I *L 0
*CAP
1 10781_1 0.00018216
*RES
1 *10782:Y 10781_1 4.06
2 10781_1 *10783:D 0
*END
*D_NET *10784 0.0001584
*CONN
*I *10785:Y O *D _3711
*I *10786:C I *L 0
*CAP
1 10784_1 0.0001584
*RES
1 *10785:Y 10784_1 1.02667
2 10784_1 *10786:C 0
*END
*D_NET *10787 0.00023664
*CONN
*I *10788:Y O *D _3712
*I *10789:D I *L 0
*CAP
1 10787_1 0.00023664
*RES
1 *10788:Y 10787_1 4.57333
2 10787_1 *10789:D 0
*END
*D_NET *10790 0.0001584
*CONN
*I *10791:Y O *D _3713
*I *10792:C I *L 0
*CAP
1 10790_1 0.0001584
*RES
1 *10791:Y 10790_1 1.02667
2 10790_1 *10792:C 0
*END
*D_NET *10793 0.0002712
*CONN
*I *10794:Y O *D _3714
*I *10795:D I *L 0
*CAP
1 10793_1 0.0002712
*RES
1 *10794:Y 10793_1 4.2
2 10793_1 *10795:D 0
*END
*D_NET *10796 0.0001584
*CONN
*I *10797:Y O *D _3715
*I *10798:C I *L 0
*CAP
1 10796_1 0.0001584
*RES
1 *10797:Y 10796_1 1.02667
2 10796_1 *10798:C 0
*END
*D_NET *10799 0.00043224
*CONN
*I *10800:Y O *D _3716
*I *10801:D I *L 0
*CAP
1 10799_1 0.00043224
*RES
1 *10800:Y 10799_1 9.00667
2 10799_1 *10801:D 0
*END
*D_NET *10802 0.0001584
*CONN
*I *10803:Y O *D _3717
*I *10804:C I *L 0
*CAP
1 10802_1 0.0001584
*RES
1 *10803:Y 10802_1 1.02667
2 10802_1 *10804:C 0
*END
*D_NET *10805 0.00017184
*CONN
*I *10806:Y O *D _3718
*I *10807:D I *L 0
*CAP
1 10805_1 0.00017184
*RES
1 *10806:Y 10805_1 3.54667
2 10805_1 *10807:D 0
*END
*D_NET *10808 0.0001632
*CONN
*I *10809:Y O *D _3719
*I *10810:C I *L 0
*CAP
1 10808_1 0.0001632
*RES
1 *10809:Y 10808_1 1.86667
2 10808_1 *10810:C 0
*END
*D_NET *10811 0.00024408
*CONN
*I *10812:Y O *D _3720
*I *10813:D I *L 0
*CAP
1 10811_1 0.00024408
*RES
1 *10812:Y 10811_1 3.78
2 10811_1 *10813:D 0
*END
*D_NET *10814 0.0003276
*CONN
*I *10815:Y O *D _3721
*I *10816:C I *L 0
*CAP
1 10814_1 0.0003276
*RES
1 *10815:Y 10814_1 4.34
2 10814_1 *10816:C 0
*END
*D_NET *10817 0.00018312
*CONN
*I *10818:Y O *D _3722
*I *10819:D I *L 0
*CAP
1 10817_1 0.00018312
*RES
1 *10818:Y 10817_1 2.75333
2 10817_1 *10819:D 0
*END
*D_NET *10820 0.0001584
*CONN
*I *10821:Y O *D _3723
*I *10822:C I *L 0
*CAP
1 10820_1 0.0001584
*RES
1 *10821:Y 10820_1 1.02667
2 10820_1 *10822:C 0
*END
*D_NET *10823 0.0001632
*CONN
*I *10824:Y O *D _3724
*I *10825:D I *L 0
*CAP
1 10823_1 0.0001632
*RES
1 *10824:Y 10823_1 1.86667
2 10823_1 *10825:D 0
*END
*D_NET *10826 0.0001584
*CONN
*I *10827:Y O *D _3725
*I *10828:C I *L 0
*CAP
1 10826_1 0.0001584
*RES
1 *10827:Y 10826_1 1.02667
2 10826_1 *10828:C 0
*END
*D_NET *10829 0.00023328
*CONN
*I *10830:Y O *D _3726
*I *10831:D I *L 0
*CAP
1 10829_1 0.00023328
*RES
1 *10830:Y 10829_1 3.92
2 10829_1 *10831:D 0
*END
*D_NET *10832 0.00012192
*CONN
*I *10833:Y O *D _3727
*I *10834:C I *L 0
*CAP
1 10832_1 0.00012192
*RES
1 *10833:Y 10832_1 2.05333
2 10832_1 *10834:C 0
*END
*D_NET *10835 0.00027024
*CONN
*I *10836:Y O *D _3728
*I *10837:D I *L 0
*CAP
1 10835_1 0.00027024
*RES
1 *10836:Y 10835_1 5.50667
2 10835_1 *10837:D 0
*END
*D_NET *10838 0.0001584
*CONN
*I *10839:Y O *D _3729
*I *10840:C I *L 0
*CAP
1 10838_1 0.0001584
*RES
1 *10839:Y 10838_1 1.02667
2 10838_1 *10840:C 0
*END
*D_NET *10841 0.0002508
*CONN
*I *10842:Y O *D _3730
*I *10843:D I *L 0
*CAP
1 10841_1 0.0002508
*RES
1 *10842:Y 10841_1 3.96667
2 10841_1 *10843:D 0
*END
*D_NET *10844 0.0001584
*CONN
*I *10845:Y O *D _3731
*I *10846:C I *L 0
*CAP
1 10844_1 0.0001584
*RES
1 *10845:Y 10844_1 1.02667
2 10844_1 *10846:C 0
*END
*D_NET *10847 0.000204
*CONN
*I *10848:Y O *D _3732
*I *10849:D I *L 0
*CAP
1 10847_1 0.000204
*RES
1 *10848:Y 10847_1 2.33333
2 10847_1 *10849:D 0
*END
*D_NET *10850 6.768e-05
*CONN
*I *10851:Y O *D _4124
*P *10850 I
*CAP
1 10850_1 6.768e-05
*RES
1 *10851:Y 10850_1 1.21333
2 10850_1 *10850 0
*END
*D_NET *10852 0.00013464
*CONN
*I *10853:Y O *D _4125
*P *10852 I
*CAP
1 10852_1 0.00013464
*RES
1 *10853:Y 10852_1 1.54
2 10852_1 *10852 0
*END
*D_NET *10854 0.00013464
*CONN
*I *10855:Y O *D _4126
*P *10854 I
*CAP
1 10854_1 0.00013464
*RES
1 *10855:Y 10854_1 1.54
2 10854_1 *10854 0
*END
*D_NET *10856 0.00011424
*CONN
*I *10857:Y O *D _4127
*P *10856 I
*CAP
1 10856_1 0.00011424
*RES
1 *10857:Y 10856_1 1.30667
2 10856_1 *10856 0
*END
*D_NET *10858 5.376e-05
*CONN
*I *10859:Y O *D _4128
*P *10858 I
*CAP
1 10858_1 5.376e-05
*RES
1 *10859:Y 10858_1 1.49333
2 10858_1 *10858 0
*END
*D_NET *10860 0.00013464
*CONN
*I *10861:Y O *D _4129
*P *10860 I
*CAP
1 10860_1 0.00013464
*RES
1 *10861:Y 10860_1 1.54
2 10860_1 *10860 0
*END
*D_NET *10862 0.00128616
*CONN
*I *10863:Y O *D _4130
*P *10862 I
*CAP
1 10862_1 0.00128616
*RES
1 *10863:Y 10862_1 12.86
2 10862_1 *10862 0
*END
*D_NET *10864 0.00035904
*CONN
*I *10865:Y O *D _4131
*P *10864 I
*CAP
1 10864_1 0.00035904
*RES
1 *10865:Y 10864_1 4.10667
2 10864_1 *10864 0
*END
*D_NET *10866 0.00125664
*CONN
*I *10867:Y O *D _4132
*P *10866 I
*CAP
1 10866_1 0.00125664
*RES
1 *10867:Y 10866_1 12.1067
2 10866_1 *10866 0
*END
*D_NET *10868 8.16e-05
*CONN
*I *10869:Y O *D _4133
*P *10868 I
*CAP
1 10868_1 8.16e-05
*RES
1 *10869:Y 10868_1 0.933333
2 10868_1 *10868 0
*END
*D_NET *10870 6.768e-05
*CONN
*I *10871:Y O *D _4134
*P *10870 I
*CAP
1 10870_1 6.768e-05
*RES
1 *10871:Y 10870_1 1.21333
2 10870_1 *10870 0
*END
*D_NET *10872 0.00036384
*CONN
*I *10873:Y O *D _4135
*P *10872 I
*CAP
1 10872_1 0.00036384
*RES
1 *10873:Y 10872_1 8.21333
2 10872_1 *10872 0
*END
*D_NET *10874 0.00033864
*CONN
*I *10875:Y O *D _4136
*P *10874 I
*CAP
1 10874_1 0.00033864
*RES
1 *10875:Y 10874_1 3.87333
2 10874_1 *10874 0
*END
*D_NET *10876 7.44e-05
*CONN
*I *10877:Y O *D _4137
*P *10876 I
*CAP
1 10876_1 7.44e-05
*RES
1 *10877:Y 10876_1 1.4
2 10876_1 *10876 0
*END
*D_NET *10878 0.00107856
*CONN
*I *10879:Y O *D _4138
*P *10878 I
*CAP
1 10878_1 0.00107856
*RES
1 *10879:Y 10878_1 25.2933
2 10878_1 *10878 0
*END
*D_NET *10880 0.00066984
*CONN
*I *10881:Y O *D _4139
*P *10880 I
*CAP
1 10880_1 0.00066984
*RES
1 *10881:Y 10880_1 6.67333
2 10880_1 *10880 0
*END
*D_NET *10882 0.00052224
*CONN
*I *10883:Y O *D _4140
*P *10882 I
*CAP
1 10882_1 0.00052224
*RES
1 *10883:Y 10882_1 5.97333
2 10882_1 *10882 0
*END
*D_NET *10884 0.00172272
*CONN
*I *10885:Y O *D _4141
*P *10884 I
*CAP
1 10884_1 0.00172272
*RES
1 *10885:Y 10884_1 18.1867
2 10884_1 *10884 0
*END
*D_NET *10886 0.00076968
*CONN
*I *10887:Y O *D _4142
*P *10886 I
*CAP
1 10886_1 0.00076968
*RES
1 *10887:Y 10886_1 7.24667
2 10886_1 *10886 0
*END
*D_NET *10888 0.00037152
*CONN
*I *10889:Y O *D _4143
*P *10888 I
*CAP
1 10888_1 0.00037152
*RES
1 *10889:Y 10888_1 9.72
2 10888_1 *10888 0
*END
*D_NET *10890 0.0003528
*CONN
*I *10891:Y O *D _4144
*P *10890 I
*CAP
1 10890_1 0.0003528
*RES
1 *10891:Y 10890_1 9.8
2 10890_1 *10890 0
*END
*D_NET *10892 5.376e-05
*CONN
*I *10893:Y O *D _4145
*P *10892 I
*CAP
1 10892_1 5.376e-05
*RES
1 *10893:Y 10892_1 1.49333
2 10892_1 *10892 0
*END
*D_NET *10894 0.0006552
*CONN
*I *10895:Y O *D _4146
*P *10894 I
*CAP
1 10894_1 0.0006552
*RES
1 *10895:Y 10894_1 15.6
2 10894_1 *10894 0
*END
*D_NET *10896 0.00029904
*CONN
*I *10897:Y O *D _4147
*P *10896 I
*CAP
1 10896_1 0.00029904
*RES
1 *10897:Y 10896_1 8.30667
2 10896_1 *10896 0
*END
*D_NET *10898 0.00043344
*CONN
*I *10899:Y O *D _4148
*P *10898 I
*CAP
1 10898_1 0.00043344
*RES
1 *10899:Y 10898_1 3.84
2 10898_1 *10898 0
*END
*D_NET *10900 0.00011424
*CONN
*I *10901:Y O *D _4149
*P *10900 I
*CAP
1 10900_1 0.00011424
*RES
1 *10901:Y 10900_1 1.30667
2 10900_1 *10900 0
*END
*D_NET *10902 3.36e-05
*CONN
*I *10903:Y O *D _4150
*P *10902 I
*CAP
1 10902_1 3.36e-05
*RES
1 *10903:Y 10902_1 0.933333
2 10902_1 *10902 0
*END
*D_NET *10904 0.00013464
*CONN
*I *10905:Y O *D _4151
*P *10904 I
*CAP
1 10904_1 0.00013464
*RES
1 *10905:Y 10904_1 1.54
2 10904_1 *10904 0
*END
*D_NET *10906 0.0003024
*CONN
*I *10907:Y O *D _4152
*P *10906 I
*CAP
1 10906_1 0.0003024
*RES
1 *10907:Y 10906_1 8.4
2 10906_1 *10906 0
*END
*D_NET *10908 0.000852
*CONN
*I *10909:Y O *D _4153
*P *10908 I
*CAP
1 10908_1 0.000852
*RES
1 *10909:Y 10908_1 9
2 10908_1 *10908 0
*END
*D_NET *10910 0.00035904
*CONN
*I *10911:Y O *D _4154
*P *10910 I
*CAP
1 10910_1 0.00035904
*RES
1 *10911:Y 10910_1 4.10667
2 10910_1 *10910 0
*END
*D_NET *10912 0.00014736
*CONN
*I *10913:Y O *D _4155
*P *10912 I
*CAP
1 10912_1 0.00014736
*RES
1 *10913:Y 10912_1 1.58667
2 10912_1 *10912 0
*END
*D_NET *10914 0.00011424
*CONN
*I *10915:Y O *D _4156
*P *10914 I
*CAP
1 10914_1 0.00011424
*RES
1 *10915:Y 10914_1 1.30667
2 10914_1 *10914 0
*END
*D_NET *10916 6.768e-05
*CONN
*I *10917:Y O *D _4157
*P *10916 I
*CAP
1 10916_1 6.768e-05
*RES
1 *10917:Y 10916_1 1.21333
2 10916_1 *10916 0
*END
